LAMMPS (9 Jan 2009)
include         seeds.txt
variable        seed1      equal    99462
variable        seed2      equal    56068
variable        seed3      equal    48059
variable        seed4      equal    31821
variable        seed5      equal    32556
dimension       3
boundary	p f p
units           lj

atom_style      cc/full
neighbor        1.0 bin
neigh_modify    every 1 check yes exclude type 1 4 exclude type 3 4 exclude type 4 4 exclude type 1 5 exclude type 2 5 exclude type 3 5 exclude type 4 5 exclude type 5 5

read_restart	data/restart.rheo.960000
  orthogonal box = (-5 0 -10) to (105 20 10)
  32 by 4 by 5 processor grid
  264470 atoms
  254124 bonds
  169416 angles
  254124 dihedrals
  7 = max # of 1-2 neighbors
  35 = max # of 1-3 neighbors
  210 = max # of 1-4 neighbors
  420 = max # of special neighbors

group           cells union rbc platelet bank
86072 atoms in group cells

bond_style      cell
bond_coeff      1 rbc 0.1 1.8 100.0 2.0 5.47 16.41 0.0
bond_coeff      2 plat 0.1 1.8 10000.0 2.0 0.0 0.0 0.0
bond_coeff      3 bond 2.222e4 128.0e-3 0.0 0.0 0.0 0.3 0	#dummy bonds defined here for future use
bond_coeff      4 bond 2.222e4 128.0e-3 0.0 0.0 0.0 0.3 0
bond_coeff      5 bond 2.222e4 128.0e-3 0.0 0.0 0.0 0.0 0
bond_coeff      6 bond 2.222e4 128.0e-3 0.0 0.0 0.0 0.0 0

angle_style     area/volume
angle_coeff     1 4900.0 132.6  5000.0 92.66 100.0 0.0
angle_coeff     2 5000.0 19.627 5000.0 6.002 100.0 0.0

dihedral_style  bend
dihedral_coeff  1 6.025 0.0 0.0
dihedral_coeff  2 100.0 0.0 0.0

pair_style      hybrid/overlay dpd 1.0 ${seed1} dpd/misc 1.0 ${seed2} cc 1.0 ${seed3} 0 105
pair_style      hybrid/overlay dpd 1.0 99462 dpd/misc 1.0 ${seed2} cc 1.0 ${seed3} 0 105
pair_style      hybrid/overlay dpd 1.0 99462 dpd/misc 1.0 56068 cc 1.0 ${seed3} 0 105
pair_style      hybrid/overlay dpd 1.0 99462 dpd/misc 1.0 56068 cc 1.0 48059 0 105
pair_coeff      1 1 dpd 5.0 20.0 2.0 0.2 1.58
pair_coeff      1 2 dpd 0.0 10.0 1.414 0.2 1.5
pair_coeff      1 3 dpd 0.0 45.0 3.0 0.2 1.5
pair_coeff      1 4 dpd 0.0 0.0 0.0 0.25 1.0
pair_coeff      1 5 dpd 0.0 0.0 0.0 0.25 1.0
pair_coeff      2 2 dpd 2.5 10.0 1.414 0.2 1.0
pair_coeff      2 3 dpd 2.5 10.0 1.414 0.2 1.0
pair_coeff      2 4 dpd 0.0 0.0 0.0 0.25 1.0
pair_coeff      2 5 dpd 0.0 0.0 0.0 0.25 1.0
pair_coeff      3 3 dpd 10.0 10.0 1.414 0.2 1.0
pair_coeff      3 4 dpd 0.0 0.0 0.0 0.25 1.0
pair_coeff      3 5 dpd 0.0 0.0 0.0 0.25 1.0
pair_coeff      4 4 dpd 0.0 0.0 0.0 0.25 1.0
pair_coeff      4 5 dpd 0.0 0.0 0.0 0.25 1.0
pair_coeff      5 5 dpd 0.0 0.0 0.0 0.25 1.0
pair_coeff      2 2 dpd/misc 2 5.0 2.0 1.0 1.0
pair_coeff      2 3 dpd/misc 2 5.0 2.0 1.0 1.0
pair_coeff      3 3 dpd/misc 2 5.0 2.0 0.95 1.0
#pair_coeff      1 1 dpd/misc 4 0.0 20.0 2.0 0.2 1.58 11
include         coeff.in
#             i j a     ga     si    s1    rc   rcc   Ri  Di    s2
pair_coeff    1 1 cc  0.00  0.00  0.00  0.40  1.58  1.00  0.00	1.730E-02	2.00	0.00	1.501E-02	2.00	0.00	8.867E-03	2.00	0.00	5.995E-03	2.00	0.00	8.508E-03	2.00	0.00	1.501E-02	2.00	0.00	2.125E-02	2.00	0.00	1.501E-02	2.00	0.00	1.802E-02	2.00	0.00	1.350E-02	2.00	0.00	3.662E-03	2.00	0.00	5.924E-03	2.00	0.00	1.274E-02	2.00	0.00	9.047E-03	2.00	0.00	1.479E-02	2.00	0.00	1.741E-02	2.00	0.00	1.454E-02	2.00	0.00	1.432E-02	2.00	0.00	1.569E-02	2.00	0.00	4.000E-04	2.00	0.00	8.710E-02	2.00	0.00	0.000E+00 2.00  0.00  0.000E+00 2.00
pair_coeff    1 2 cc  0.00  0.00  0.00  0.40  1.58  1.00  0.00	1.730E-02	2.00	0.00	1.501E-02	2.00	0.00	8.867E-03	2.00	0.00	5.995E-03	2.00	0.00	8.508E-03	2.00	0.00	1.501E-02	2.00	0.00	2.125E-02	2.00	0.00	1.501E-02	2.00	0.00	1.802E-02	2.00	0.00	1.350E-02	2.00	0.00	3.662E-03	2.00	0.00	5.924E-03	2.00	0.00	1.274E-02	2.00	0.00	9.047E-03	2.00	0.00	1.479E-02	2.00	0.00	1.741E-02	2.00	0.00	1.454E-02	2.00	0.00	1.432E-02	2.00	0.00	1.569E-02	2.00	0.00	4.000E-04	2.00	0.00	8.710E-02	2.00	0.00	0.000E+00 2.00  0.00  0.000E+00 2.00

#time integrater
fix		1  move nve
fix		2  chemical cc/verlet x 0.0 initial_cc.dat
#add reaction
fix		31 solvent cc/reaction 2 33 25 65 0 react_rates.dat
fix		32 platelet cc/reaction 3 33 25 65 0 react_rates.dat
#add body force to drive the flow + bounce-back + no-slip
fix     40 solvent solid/bound 0 bc_channel.dat
fix     41 rbc solid/bound 0 bc_channel_rbc.dat
fix     42 platelet solid/bound 0 bc_channel_plat.dat
fix		43 solvent solid/bound 1 bc_channel_cc.dat 18
fix     7  platelet com/gyrat 100 1 1 0 data/traj/plat 1 3 SE # compute bond formation
fix		8  move addforce 0 0.5 0.0 0.0

variable c_cut    equal 0.6
variable b_cut    equal 0.6
variable ks       equal 9.1e3
variable r0       equal 0.128
variable kf0      equal 1.18e-3
variable sigf     equal 1.8e-3
variable kr0      equal 5.0e-7
variable sigr     equal 1.62e-3
variable T        equal 0.1

fix     91 adh bond/create/AD 2 4 ${c_cut} 3 ${ks} ${r0} ${kf0} ${sigf} ${T} 10 5 1 ${seed4} catch
fix     91 adh bond/create/AD 2 4 0.6 3 ${ks} ${r0} ${kf0} ${sigf} ${T} 10 5 1 ${seed4} catch
fix     91 adh bond/create/AD 2 4 0.6 3 9100 ${r0} ${kf0} ${sigf} ${T} 10 5 1 ${seed4} catch
fix     91 adh bond/create/AD 2 4 0.6 3 9100 0.128 ${kf0} ${sigf} ${T} 10 5 1 ${seed4} catch
fix     91 adh bond/create/AD 2 4 0.6 3 9100 0.128 0.00118 ${sigf} ${T} 10 5 1 ${seed4} catch
fix     91 adh bond/create/AD 2 4 0.6 3 9100 0.128 0.00118 0.0018 ${T} 10 5 1 ${seed4} catch
fix     91 adh bond/create/AD 2 4 0.6 3 9100 0.128 0.00118 0.0018 0.1 10 5 1 ${seed4} catch
fix     91 adh bond/create/AD 2 4 0.6 3 9100 0.128 0.00118 0.0018 0.1 10 5 1 31821 catch
fix     92 adh bond/break/AD ${b_cut} 3 ${ks} ${r0} ${kr0} ${sigr} ${T} ${seed5} slip
fix     92 adh bond/break/AD 0.6 3 ${ks} ${r0} ${kr0} ${sigr} ${T} ${seed5} slip
fix     92 adh bond/break/AD 0.6 3 9100 ${r0} ${kr0} ${sigr} ${T} ${seed5} slip
fix     92 adh bond/break/AD 0.6 3 9100 0.128 ${kr0} ${sigr} ${T} ${seed5} slip
fix     92 adh bond/break/AD 0.6 3 9100 0.128 5e-07 ${sigr} ${T} ${seed5} slip
fix     92 adh bond/break/AD 0.6 3 9100 0.128 5e-07 0.00162 ${T} ${seed5} slip
fix     92 adh bond/break/AD 0.6 3 9100 0.128 5e-07 0.00162 0.1 ${seed5} slip
fix     92 adh bond/break/AD 0.6 3 9100 0.128 5e-07 0.00162 0.1 32556 slip
#fix     93 platelet bond/create/AD 2 2 0.5 4 2.222e5 0.0 1.18 1.31e-3 0.1 10 1 1 1354 catch
#fix     94 platelet bond/break/AD 0.3 4 2.222e4 0.0 5.0e-7 1.62e-3 0.1 3098 slip
fix		101 platelet molecule
fix		102 cells influx 0.41552 1000 3 2 5 1.0 bank 7 y -5 6.5 0 20 -10 10

#statistics
fix             11 solvent stat/velT box 100 40 10 0 1 50000 data/velT  9   #9  for Thrombin
fix             12 solvent stat/velT box 100 40 10 0 1 50000 data/velT 10   #10 for Prothrombin
fix             13 solvent stat/velT box 100 40 10 0 1 50000 data/velT 11   #11 for Fibrin
fix             14 solvent stat/velT box 100 40 10 0 1 50000 data/velT 12   #12 for Fibrinogen
fix             15 solvent stat/velT box 100 40 10 0 1 50000 data/velT 15   #15 for Anti Thrombin-III
fix             16 solvent stat/velT box 100 40 10 0 1 50000 data/velT 21   #21 for ADP
fix             17 platelet stat/dens box 100 40 10 0 1 50000 data/den_plat
fix             18 move stat/all box 30 40 20 0 1 2000 30 60 0 20 -10 10
fix             20 solvent stat/velT box 100 40 10 0 1 50000 data/velT 1    #1 for IXa
fix             21 solvent stat/velT box 100 40 10 0 1 50000 data/velT 2    #2 for IX
fix             22 solvent stat/velT box 100 40 10 0 1 50000 data/velT 7    #7 for Xa
fix             23 solvent stat/velT box 100 40 10 0 1 50000 data/velT 8    #8 for X

reset_timestep	0
timestep        0.001

compute         mythermo solvent temp/partial 0 1 1
thermo_modify   temp mythermo flush yes lost warn
thermo          500

dump            1 rbc atom 20000 data/dump.rbc.lammpstrj
dump            2 adh atom 1000 data/dump.plat.lammpstrj
dump            3 rbc custom 20000 data/rbc.lammpstrj id mol x y z
dump            4 platelet custom 1000 data/plat.lammpstrj id mol x y z

restart		50000 data/restart
run 		2000010
Memory usage per processor = 37.9597 Mbytes
Step Temp E_pair E_mol TotEng Press 
       0    0.1003595    7.1279812    915620.45    915627.64   -403.98894 
     500   0.10023051    7.1302522    915621.01     915628.2   -406.03262 
    1000   0.10013612    7.1322991    914264.59    914271.79   -403.09499 
    1500    0.1001122    7.1343208    912564.27    912571.47   -402.22677 
    2000   0.10007202    7.1339244    912234.65    912241.85   -406.65118 
    2500   0.10002203    7.1331656    912413.45    912420.65   -402.10216 
    3000   0.10025448      7.13624    913525.76    913532.96   -406.76843 
    3500   0.10006824    7.1336823    914415.49    914422.69   -404.80782 
    4000   0.10021798    7.1342466    914415.39     914422.6   -406.95215 
    4500   0.10014609    7.1360441    914347.88    914355.09   -403.19233 
    5000     0.100311    7.1373028    915913.96    915921.16   -403.30082 
    5500   0.10006777    7.1370552    915843.17    915850.38   -406.53875 
    6000   0.10030721    7.1375519    918123.92    918131.13   -402.78713 
    6500  0.099903108    7.1379224    918567.25    918574.46    -406.7459 
    7000    0.1001122    7.1391629    919033.29    919040.49   -404.76829 
    7500   0.10060691    7.1412672    919033.03    919040.24   -403.59811 
    8000      0.10036    7.1416161    919965.79       919973   -403.68392 
    8500   0.10031472    7.1420965       920628    920635.21    -403.5674 
    9000   0.10039339      7.14312    920765.85    920773.06   -405.45828 
    9500   0.10076383    7.1425198    920953.24    920960.45   -405.61328 
   10000   0.10039872    7.1423947    921171.62    921178.83   -404.59845 
   10500   0.10025843    7.1427448    921534.89     921542.1   -404.12549 
   11000   0.10013834     7.144054    923336.82    923344.03   -402.86801 
   11500     0.100068    7.1442931    923336.76    923343.97   -406.22731 
   12000   0.10022944    7.1453354    925665.57    925672.78   -405.73667 
   12500   0.10065309    7.1453022     927189.4    927196.61    -404.5906 
   13000   0.10052386    7.1458128    926281.23    926288.45    -404.4335 
   13500   0.10045771    7.1474904    927622.22    927629.43   -406.41085 
   14000   0.10022162    7.1474284    930407.82    930415.03    -406.9428 
   14500   0.10017817    7.1474686     932850.8    932858.01   -403.55429 
   15000   0.10060855    7.1484373    934500.83    934508.04   -403.45024 
   15500   0.10020287    7.1476761    934500.84    934508.05   -404.38723 
   16000   0.10008359    7.1461237    937418.43    937425.64   -406.06833 
   16500   0.10008708    7.1449363    939397.39     939404.6   -404.49411 
   17000    0.1002938    7.1453964    941639.96    941647.17   -402.60267 
   17500   0.10029742    7.1470914    943756.44    943763.65   -401.93896 
   18000   0.10038655    7.1463021       944349    944356.21   -406.74923 
   18500   0.10015412     7.147496    944444.85    944452.07   -404.85299 
   19000  0.099972908    7.1468142    944444.92    944452.14   -401.49415 
   19500   0.10014746    7.1465789    944852.35    944859.56   -404.86152 
   20000   0.10034156    7.1436848    946305.41    946312.62   -409.41909 
   20500   0.10124963    7.1456136    946107.92    946115.13    -404.9818 
   21000   0.10027168    7.1457771    946575.35    946582.56   -406.02791 
   21500   0.10014863    7.1439813    947270.41    947277.62   -405.01312 
   22000   0.10028611    7.1428172    947339.77    947346.98   -403.69671 
   22500   0.10055273     7.143392     947295.4    947302.61   -403.86726 
   23000   0.10024016    7.1437487    947295.29     947302.5   -404.87967 
   23500   0.10017434    7.1457887    946913.75    946920.97   -402.19776 
   24000   0.10052002    7.1460269    946588.41    946595.63    -402.2814 
   24500   0.10009671    7.1467061    944898.47    944905.69   -402.41356 
   25000   0.10059929    7.1456982    944609.68     944616.9   -405.32317 
   25500   0.10013481    7.1447683    943748.86    943756.07   -405.29686 
   26000   0.10009115    7.1458192    943474.74    943481.95   -403.38815 
   26500   0.10010732    7.1459016    943474.63    943481.84   -404.45078 
   27000   0.10014982     7.147524    941953.04    941960.25   -405.48513 
   27500   0.10014893    7.1478587    941649.38    941656.59   -403.78691 
   28000   0.10041536    7.1479136    941382.63    941389.84     -403.868 
   28500   0.10039811    7.1481024    940532.45    940539.66   -406.16638 
   29000  0.099768822    7.1499937    940991.63    940998.85   -406.98169 
   29500    0.1004859    7.1509817    940845.41    940852.62   -404.24008 
   30000   0.10049784    7.1494291    940845.37    940852.59   -406.22839 
   30500   0.10038914    7.1487784    940766.68     940773.9   -402.96563 
   31000   0.10014707     7.148863     941623.5    941630.71   -403.92927 
   31500   0.10060601    7.1508211    942459.12    942466.34   -404.93716 
   32000   0.10022302    7.1490962    943855.66    943862.87   -404.08169 
   32500  0.099977605    7.1502588    946141.92    946149.13   -407.29776 
   33000    0.1004717    7.1495968    947154.72    947161.93   -402.32903 
   33500   0.10054713    7.1514431    947154.58     947161.8    -405.4896 
   34000   0.10000833    7.1522386    948033.47    948040.69   -403.72627 
   34500   0.10033896    7.1505404    948859.95    948867.17     -403.166 
   35000   0.10017662    7.1509519    948271.76    948278.97   -404.69417 
   35500   0.10042474    7.1497582    950267.37    950274.59   -402.92682 
   36000   0.10040326    7.1517185    951659.27    951666.49   -404.67303 
   36500   0.10027409     7.149199    952538.34    952545.55   -405.27659 
   37000   0.10010737    7.1497472    953898.02    953905.23   -405.79383 
   37500   0.10026743    7.1508376    953202.45    953209.66   -402.33221 
   38000   0.10046209    7.1519023    953202.35    953209.57    -403.1364 
   38500   0.10031443    7.1512319    954228.63    954235.85    -402.9862 
   39000    0.1004395     7.152904    955848.87    955856.09   -402.51773 
   39500   0.10002031    7.1527605    954596.34    954603.55   -403.86214 
   40000   0.10004637     7.150144    955149.05    955156.26    -402.0137 
   40500   0.10008799    7.1499812     954044.7    954051.92   -404.20272 
   41000   0.10044856    7.1504607    953233.12    953240.33   -404.62079 
   41500   0.10017179    7.1502074    953233.05    953240.27   -402.63721 
   42000   0.10018404     7.149487    952422.86    952430.08   -404.26326 
   42500   0.10022468    7.1496006    950383.71    950390.92   -403.60735 
   43000   0.10034747    7.1493444    949280.01    949287.23   -406.24648 
   43500   0.10019382    7.1504961    946373.91    946381.13   -406.22569 
   44000  0.099996531    7.1500788    943594.09    943601.31   -403.63692 
   44500   0.10017845    7.1481777    941625.41    941632.62   -402.79437 
   45000   0.10021739    7.1491414    938581.48    938588.69   -403.66357 
   45500    0.1003851    7.1506456    936049.58    936056.79   -402.32955 
   46000    0.1000669    7.1519671    936049.57    936056.79    -405.7403 
   46500   0.10008581    7.1507389    934318.11    934325.33   -404.84313 
   47000   0.10025279    7.1515976    933677.68     933684.9   -405.40116 
   47500   0.10028394    7.1533524     932610.9    932618.12   -402.53387 
   48000   0.10013228     7.151903    930174.97    930182.19   -404.10815 
   48500   0.10039378    7.1491196     926791.7    926798.91   -404.21835 
   49000   0.10035712    7.1491453    923780.24    923787.45   -405.79846 
   49500  0.099937244    7.1491041    923780.13    923787.34   -406.51025 
   50000   0.10026155    7.1492091    918911.55    918918.76   -404.77667 
   50500    0.1001288    7.1483654    918911.52    918918.74   -404.42255 
   51000   0.10013109    7.1472236    920875.83    920883.04   -404.87084 
   51500    0.1001039    7.1470222    921592.92    921600.13   -405.36135 
   52000   0.10001303     7.144746    922942.97    922950.18   -404.13783 
   52500   0.10012501    7.1438023    924923.53    924930.74   -405.21151 
   53000   0.10003301    7.1439306    926801.27    926808.48   -405.23234 
   53500   0.10051092    7.1447297     928212.3    928219.51   -404.07163 
   54000   0.10049396    7.1449148    928212.22    928219.43   -405.13484 
   54500   0.10047751    7.1413657    930254.94    930262.15   -406.26791 
   55000   0.10016395    7.1428076    931383.19     931390.4   -404.84922 
   55500   0.10060469    7.1411285    934599.02    934606.23   -403.91617 
   56000   0.10052857    7.1415194    937110.55    937117.76   -404.90045 
   56500   0.10025263    7.1398431    940355.79    940362.99   -405.47196 
   57000   0.10036182    7.1389982    942941.41    942948.62   -401.77852 
   57500    0.1000207    7.1393469    942941.35    942948.55    -405.6504 
   58000   0.10001296    7.1387493    944578.72    944585.93   -405.34383 
   58500    0.1001594    7.1404569    947261.26    947268.47    -406.8842 
   59000  0.099902435    7.1399156    949960.08    949967.29   -403.40083 
   59500    0.1003073    7.1418189    950854.66    950861.87   -407.52785 
   60000   0.10025015    7.1414814    953709.47    953716.68   -404.51246 
   60500   0.10041397    7.1413747    954906.92    954914.13   -405.25539 
   61000   0.10030545    7.1418849    958475.71    958482.92    -404.0632 
   61500   0.10049918    7.1412284    962504.35    962511.56   -404.52659 
   62000   0.10028272    7.1409167    962504.31    962511.52   -405.63689 
   62500   0.10035965    7.1424047     964063.1    964070.31   -406.06659 
   63000    0.1002656    7.1421263    966907.19     966914.4   -405.65228 
   63500   0.10007903    7.1418253    968553.51    968560.72   -401.37773 
   64000   0.10015559    7.1413303    969748.35    969755.56    -402.9081 
   64500    0.1001743    7.1419859    969898.19     969905.4   -405.78935 
   65000   0.10053231    7.1413373    970079.31    970086.52   -406.54367 
   65500  0.099794304    7.1404464    970079.36    970086.57   -405.49691 
   66000   0.10057724    7.1390606    970419.64    970426.85   -401.48169 
   66500   0.10023243    7.1395352    970270.81    970278.02   -403.98548 
   67000   0.10010779     7.139248    970002.75    970009.96   -407.94878 
   67500   0.10007705    7.1380773    969397.07    969404.28   -406.33844 
   68000   0.10012393    7.1365352    969199.02    969206.23   -403.00709 
   68500   0.10031189    7.1368342    969566.24    969573.44   -405.77244 
   69000   0.10015249    7.1373375    967353.75    967360.95   -404.71202 
   69500   0.10012122    7.1376225    967353.63    967360.83   -404.89311 
   70000   0.10020505    7.1358872    965058.06    965065.26   -402.60986 
   70500   0.10008242    7.1341233    964107.76    964114.96   -404.17068 
   71000   0.10053797    7.1343491    961813.09    961820.29   -405.51009 
   71500   0.10024977    7.1329528    959883.75    959890.94   -405.38736 
   72000   0.10057259    7.1315546    959887.08    959894.28   -404.38755 
   72500   0.10035257    7.1304672    958077.45    958084.64   -404.64639 
   73000   0.10037474    7.1299665    958077.56    958084.75   -407.43167 
   73500   0.10047418    7.1311234    956418.05    956425.25   -404.27313 
   74000   0.10025011      7.13029     954622.8    954629.99   -403.10646 
   74500   0.10003482    7.1307927    953407.38    953414.58   -404.26559 
   75000   0.10005617    7.1287514     951567.7     951574.9    -406.9511 
   75500   0.10039964     7.129508    949438.93    949446.13   -404.64852 
   76000   0.10031688    7.1275222    948295.54    948302.73     -407.414 
   76500   0.10038621    7.1259821    948295.39    948302.59   -406.79877 
   77000  0.099967344    7.1274426    947325.93    947333.12    -404.4331 
   77500   0.10003427    7.1273717     946524.5    946531.69   -404.64449 
   78000   0.10044248     7.126574    944000.21    944007.41   -403.53771 
   78500   0.10025586    7.1241434    941937.48    941944.67   -403.62068 
   79000   0.10040365    7.1230223    939674.02    939681.21   -407.08111 
   79500   0.10025499    7.1214354    938326.45    938333.64   -406.98637 
   80000   0.10029656    7.1223384    938326.59    938333.78   -408.82852 
   80500  0.099974745    7.1225415    937645.58    937652.76   -402.48927 
   81000   0.10009124     7.122545    934759.68    934766.86   -404.93039 
   81500   0.10006437    7.1209929    933037.97    933045.16   -404.45467 
   82000   0.10009989    7.1222947    932142.81       932150   -405.40804 
   82500   0.10041686    7.1235883    930703.86    930711.05   -404.63831 
   83000   0.10033462     7.120869    932299.52    932306.71   -404.23486 
   83500   0.10025395     7.118063    932301.86    932309.05   -403.22776 
   84000   0.10054997     7.117741     932301.8    932308.99   -402.46162 
   84500   0.10028963    7.1168156    933448.45    933455.63   -402.96554 
   85000   0.10024182    7.1157329    932935.31    932942.49   -405.41761 
   85500   0.10057921    7.1147647     934512.7    934519.89   -406.46074 
   86000   0.10057881    7.1138014    934761.33    934768.51   -404.16326 
   86500   0.10070528    7.1157503    937480.78    937487.97   -405.24816 
   87000   0.10061824    7.1142625    939738.38    939745.57   -404.19837 
   87500   0.10008434    7.1137727    939738.27    939745.45   -405.51856 
   88000    0.1000984    7.1142626     942199.4    942206.58   -405.96898 
   88500   0.10004749    7.1135904    943429.23    943436.41    -403.5075 
   89000   0.10060444    7.1140427    944868.59    944875.77   -405.07868 
   89500   0.10061898    7.1107193    946704.08    946711.26   -404.69149 
   90000   0.10055102    7.1105151    948705.93     948713.1   -404.75961 
   90500   0.10022056     7.109834    951331.72    951338.89   -404.24979 
   91000    0.1000856    7.1079684    951331.73    951338.91   -402.00294 
   91500   0.10064937    7.1059924    953157.41    953164.58   -403.91807 
   92000    0.1002978    7.1039746    956732.48    956739.65   -405.27587 
   92500   0.10051022    7.1063919    957730.21    957737.38   -405.63241 
   93000   0.10008193    7.1061921    958974.18    958981.35   -404.57521 
   93500   0.10040379     7.106014    961363.63     961370.8   -403.43546 
   94000   0.10038092    7.1042318    962052.83       962060   -403.85794 
   94500   0.10072873    7.1027281    962052.91    962060.08   -404.69022 
   95000   0.10019469    7.1018498    961577.47    961584.63   -403.83447 
   95500   0.10043037    7.1013397    963282.55    963289.72   -406.56638 
   96000   0.10027817    7.0996197    963029.18    963036.34   -404.79672 
   96500   0.10018879    7.0997952    962952.27    962959.43   -403.17401 
   97000   0.10084054    7.1006065    961977.02    961984.19   -403.81974 
   97500   0.10015063    7.0990129    959154.34    959161.51   -402.87234 
   98000   0.09990184    7.1004181    957654.56    957661.73   -406.26968 
   98500   0.10069934     7.100701    957654.57    957661.74   -406.31237 
   99000    0.1003622    7.1003423    955007.31    955014.48    -406.7986 
   99500   0.10027713    7.0998054    953699.49    953706.65   -406.62122 
  100000   0.10078883    7.1005939    951878.72    951885.89   -406.49177 
  100500   0.10018908    7.0998524     951878.7    951885.87   -405.13145 
  101000   0.10022001    7.0962769    951669.16    951676.32   -404.89612 
  101500    0.1004199    7.0984507    951520.98    951528.15   -404.39791 
  102000   0.10030676    7.0962373    948877.48    948884.64   -402.82148 
  102500   0.10046578    7.0978658    946521.22    946528.39    -405.3879 
  103000    0.1000913    7.0958743     945924.4    945931.57   -406.38277 
  103500   0.10024064    7.0954856    944623.33    944630.49    -403.8438 
  104000   0.10027359    7.0966929    944623.44     944630.6   -403.46647 
  104500   0.10055554    7.0968797    943428.71    943435.87   -404.75586 
  105000   0.10034168    7.0949123    943271.48    943278.64   -405.16259 
  105500   0.10036825     7.095242    942612.04     942619.2   -405.95604 
  106000   0.10016271    7.0951729    941779.44     941786.6   -403.66604 
  106500   0.10042392    7.0950166    942885.33     942892.5   -405.96274 
  107000  0.099739128    7.0963901    942727.53     942734.7   -404.54189 
  107500   0.10050333    7.0953455    942727.58    942734.74   -406.45006 
  108000   0.10010035    7.0944984    943694.61    943701.77   -407.68571 
  108500   0.10059779    7.0944027    943034.28    943041.45   -403.29856 
  109000   0.10041398    7.0945048    941303.38    941310.54   -406.08846 
  109500   0.10029182    7.0931155    938054.78    938061.94   -404.85685 
  110000   0.10033384    7.0927502    934859.79    934866.95   -408.12249 
  110500   0.10042531     7.093918    933787.75    933794.91   -404.81188 
  111000   0.10015516    7.0935051    933787.73    933794.89   -404.40766 
  111500    0.1001894    7.0926062     933712.7    933719.86   -402.37109 
  112000   0.10055714    7.0909213    933339.82    933346.97   -403.85797 
  112500   0.10023797     7.092731    931877.12    931884.28   -405.54249 
  113000   0.10044376    7.0895304    932692.86    932700.02   -404.48103 
  113500   0.10013068    7.0898052    932072.05    932079.21   -403.73348 
  114000   0.10037973    7.0899726    932496.62    932503.77   -404.23615 
  114500   0.10008398    7.0905975    932581.59    932588.74   -405.11902 
  115000    0.1002421    7.0895016    932581.46    932588.61   -405.05335 
  115500   0.10024227    7.0899354    933329.09    933336.25   -404.88404 
  116000   0.10046348    7.0903221    931743.21    931750.37    -406.3552 
  116500   0.10034766    7.0899062    930657.34     930664.5   -404.23379 
  117000   0.10024365      7.08911    930961.53    930968.69   -404.84151 
  117500   0.10017783    7.0868881    929782.84       929790   -403.35374 
  118000   0.10022061    7.0886192    931063.65     931070.8   -403.62542 
  118500  0.099903553    7.0885213    931347.88    931355.03   -402.95428 
  119000   0.10012857    7.0866898    933153.55     933160.7   -404.27986 
  119500   0.10044438    7.0877073    934358.42    934365.58   -404.62067 
  120000    0.1004175    7.0868802    935661.38    935668.54   -404.33346 
  120500   0.10008154    7.0902869    937917.67    937924.82   -406.39181 
  121000   0.10013784    7.0898243    939452.42    939459.58   -406.28441 
  121500   0.10006303    7.0899264    939452.46    939459.62   -403.95372 
  122000   0.10032669    7.0886311    939924.29    939931.45   -402.87636 
  122500  0.099818004    7.0882974     941556.5    941563.66    -402.8943 
  123000    0.1003686    7.0887092    943927.43    943934.59   -404.05887 
  123500    0.1002177    7.0888287    945896.03    945903.19   -403.85978 
  124000   0.10033354    7.0899827    946909.36    946916.52   -405.64456 
  124500    0.1001222    7.0886495    948703.12    948710.27    -408.4596 
  125000   0.10048312    7.0879592    948703.23    948710.39   -405.90698 
  125500   0.10055649    7.0894373    950461.69    950468.85   -402.42355 
  126000    0.1005151    7.0886208    952433.22    952440.38   -406.46469 
  126500   0.10054403    7.0889494    954699.56    954706.72   -404.01154 
  127000   0.10041549    7.0898477    955991.12    955998.27   -403.09845 
  127500   0.10044115    7.0900309     958635.3    958642.46   -405.65665 
  128000   0.10036335    7.0902995    960910.67    960917.83    -405.9349 
  128500   0.10054001    7.0907024    960910.61    960917.77    -402.5634 
  129000  0.099973235    7.0900547    961619.79    961626.94   -405.16165 
  129500   0.10081311    7.0893759    963071.51    963078.67   -404.66789 
  130000   0.10051149    7.0877065    965061.36    965068.52   -406.63606 
  130500   0.10005904     7.090221    966064.16    966071.32   -404.23967 
  131000   0.10000531    7.0887092    966429.69    966436.85   -404.52278 
  131500    0.1005009     7.089418    967538.63    967545.79   -406.37813 
  132000  0.099788234    7.0864895    967538.84    967545.99    -403.7832 
  132500    0.1004298    7.0881737    969627.74    969634.89   -406.38641 
  133000   0.10015457    7.0877489    969890.82    969897.97   -404.10372 
  133500    0.1007998    7.0890337    970531.58    970538.74   -401.61999 
  134000   0.10020276    7.0891475    971062.57    971069.73   -405.58604 
  134500   0.10012967     7.091291    970569.59    970576.75   -406.21784 
  135000   0.10013545    7.0921787    969123.36    969130.52   -405.62296 
  135500   0.10002122    7.0918411    969440.16    969447.32   -405.57036 
  136000    0.1005852    7.0924333    969440.23    969447.39   -405.42332 
  136500   0.09985199     7.091728    968943.34    968950.49   -402.87538 
  137000   0.10056432    7.0934438    968665.03     968672.2   -403.33359 
  137500    0.1002112    7.0915847    968596.82    968603.98   -404.25657 
  138000   0.10035486    7.0914546    967296.98    967304.14   -402.76296 
  138500   0.10055649    7.0925564    965639.82    965646.98   -406.80357 
  139000  0.099330944    7.0921076    965336.19    965343.35   -405.32719 
  139500   0.10048802    7.0927541     964401.3    964408.46   -405.86046 
  140000   0.10018231    7.0933335    964401.17    964408.33   -408.21105 
  140500    0.1005549    7.0951382    963692.55    963699.72   -402.30793 
  141000   0.10043054    7.0942136     963465.7    963472.86   -402.88241 
  141500   0.10037519     7.095045     962825.2    962832.36   -403.62606 
  142000   0.10020932    7.0952485    961233.24     961240.4   -402.00371 
  142500   0.10009104     7.099794    960671.95    960679.12   -404.47283 
  143000   0.10019302    7.0988051    960351.51    960358.67   -407.78381 
  143500   0.10015499    7.0994269     957166.9    957174.07   -406.17658 
  144000   0.10004378    7.0994368    957167.01    957174.17   -403.26746 
  144500   0.10020386    7.0992811    956553.83       956561   -403.60243 
  145000   0.10057691    7.0985512     954038.5    954045.66   -402.83586 
  145500   0.10032583    7.1000056    951289.39    951296.56   -405.24992 
  146000   0.10032976    7.0995139    949650.77    949657.94   -405.47635 
  146500   0.10030993    7.1000119    946514.12    946521.29   -405.18687 
  147000   0.10035078    7.1000487    942788.57    942795.74   -405.41972 
  147500   0.10025742    7.0982604    942788.59    942795.76   -402.70927 
  148000  0.099919688    7.0985751    942352.07    942359.23   -406.52019 
  148500   0.10058086    7.1010542    938997.27    939004.44   -404.88026 
  149000  0.099839097    7.1002089    937958.51    937965.68   -403.18453 
  149500   0.10029938    7.1006735    936435.43     936442.6   -404.71688 
  150000     0.100726    7.0995894    933367.95    933375.12   -404.57522 
  150500   0.10020916    7.0983725    933367.91    933375.08   -403.73238 
  151000   0.10009894    7.0980111    933002.05    933009.22   -404.91076 
  151500   0.10045226    7.1004911    931634.71    931641.87   -404.51268 
  152000   0.10057514    7.1012425    931466.16    931473.33   -403.94041 
  152500   0.10009804    7.1019239    929393.11    929400.28   -404.31726 
  153000   0.10029974    7.1027333    928069.86    928077.03   -404.50959 
  153500    0.1002107    7.1025715     926388.3    926395.47   -404.12434 
  154000   0.10006166    7.1026225    926368.09    926375.26   -405.60317 
  154500   0.10017817    7.1035019    926368.23     926375.4   -404.17722 
  155000   0.10008182    7.1034467     925635.2    925642.37    -402.4067 
  155500  0.099828704    7.1051738    925910.84    925918.01   -403.43953 
  156000  0.099920575      7.10495    925693.67    925700.84   -404.86771 
  156500   0.10040939    7.1053449    925937.88    925945.05   -406.63371 
  157000   0.10066088    7.1049687    925938.06    925945.24   -404.22173 
  157500  0.099985368    7.1052264    926845.26    926852.44   -404.10115 
  158000   0.10034235    7.1046107    926126.06    926133.23   -405.09876 
  158500  0.099834215    7.1057939    927333.73    927340.91    -406.3577 
  159000  0.099821267    7.1067201     927773.5    927780.67   -404.36509 
  159500   0.10019975     7.106462    927192.97    927200.15   -402.98627 
  160000   0.10071776     7.106517    927040.77    927047.94   -403.79556 
  160500   0.10012666    7.1057578    926570.49    926577.67   -404.87267 
  161000   0.10042078     7.105682    926570.41    926577.58     -404.974 
  161500   0.10064969     7.106479    926661.92    926669.09   -402.01635 
  162000   0.10049461    7.1068107    927302.31    927309.48   -404.11595 
  162500   0.10039265     7.107639    927702.69    927709.87   -405.75121 
  163000   0.10016626     7.106956    926750.43     926757.6   -402.48295 
  163500   0.10033938    7.1087301    925900.25    925907.42   -405.33147 
  164000   0.10011331    7.1063417    926472.95    926480.12   -405.44266 
  164500   0.10012228    7.1063031     925364.3    925371.48   -405.58957 
  165000   0.10066145    7.1048768    925420.11    925427.28   -403.88278 
  165500   0.10066404     7.106042    925116.48    925123.65   -405.94666 
  166000   0.10009109    7.1052198    926723.81    926730.98   -402.27501 
  166500   0.10025926    7.1075521    928390.63     928397.8   -405.63526 
  167000   0.10044617    7.1069421    928697.63     928704.8   -402.46026 
  167500   0.10043986    7.1087127    929438.07    929445.24   -406.55402 
  168000   0.10004601    7.1089863    929438.23    929445.41   -403.19651 
  168500  0.099958112    7.1078398    929742.32     929749.5   -404.06152 
  169000  0.099740956    7.1087136    929932.85    929940.03   -403.59027 
  169500   0.10003411    7.1084089    929842.52    929849.69   -402.95175 
  170000   0.10058938    7.1082531    928377.56    928384.74   -405.26783 
  170500    0.1003707     7.109668    927554.07    927561.25    -405.7056 
  171000    0.1006328    7.1108496    926104.43    926111.61    -406.8592 
  171500   0.10072939    7.1119303    925032.42     925039.6   -405.84679 
  172000   0.10023809    7.1121548    923448.39    923455.56   -407.14588 
  172500  0.099602161    7.1136278    923145.72     923152.9   -402.22235 
  173000   0.10004713    7.1131036    922022.45    922029.63    -406.4029 
  173500   0.10069057    7.1139868    922420.09    922427.27   -406.90898 
  174000     0.100085    7.1147909    922420.18    922427.36   -403.14659 
  174500   0.10034887    7.1128348    922748.75    922755.93   -404.45975 
  175000   0.10028931    7.1109477    923608.03    923615.21   -405.46681 
  175500   0.10033695    7.1143857     924320.6    924327.78    -404.4017 
  176000   0.10030005    7.1157624    924686.43    924693.62   -404.50622 
  176500    0.1002111    7.1153518    925026.66    925033.84   -402.55169 
  177000   0.10032225    7.1158446    925680.43    925687.61   -403.64046 
  177500   0.10081647    7.1152257    926254.82       926262   -403.68334 
  178000   0.10026834    7.1163532    926173.97    926181.15   -406.32274 
  178500    0.1001519    7.1166483    926169.22    926176.41   -404.39871 
  179000       0.1007    7.1145345    926892.67    926899.85    -405.6512 
  179500   0.10008338    7.1147652    928579.89    928587.07   -404.35329 
  180000  0.099999655    7.1164095    929007.73    929014.91   -405.00782 
  180500   0.10041861    7.1142905    929007.68    929014.86   -405.55237 
  181000   0.10038208    7.1150656    930093.07    930100.25   -403.71457 
  181500    0.1004898     7.115407     931997.8    932004.98   -404.38653 
  182000     0.100726      7.11378    933615.66    933622.85   -403.39885 
  182500  0.099943098    7.1149464    934783.69    934790.87   -402.46957 
  183000  0.099859699    7.1129502    935264.67    935271.85   -403.56048 
  183500   0.10043387    7.1140114    937005.05    937012.23   -405.28777 
  184000  0.099984683    7.1144352    938703.21    938710.39   -401.40983 
  184500   0.10047115    7.1143862    939445.33    939452.51   -403.48067 
  185000   0.10054832    7.1132077    939445.55    939452.73   -404.09923 
  185500   0.10021653     7.112695    938770.62     938777.8    -404.4494 
  186000   0.10021233    7.1142252    939271.22     939278.4   -407.28237 
  186500   0.10028778    7.1116937    939445.93    939453.11    -406.4172 
  187000    0.1004273    7.1121891     939594.2    939601.38   -403.85353 
  187500   0.10047957    7.1140635    940182.96    940190.14   -405.08722 
  188000   0.10017142    7.1132343    938859.78    938866.96   -404.10098 
  188500   0.10023548    7.1133882    938675.22     938682.4   -405.44981 
  189000   0.10057535    7.1122614    938675.34    938682.52   -406.24756 
  189500   0.10035753    7.1137775    937009.24    937016.42   -403.71969 
  190000  0.099975467    7.1135259    935161.69    935168.87   -404.96349 
  190500   0.10034374    7.1145985    933019.53    933026.71   -404.20532 
  191000   0.10054553    7.1145168    930143.16    930150.34   -404.45122 
  191500   0.10039694    7.1144133    926812.92     926820.1   -405.16174 
  192000    0.1002829    7.1146085    924825.96    924833.14   -403.82178 
  192500   0.10052579    7.1139991    921438.78    921445.96   -404.19366 
  193000   0.10002582    7.1138319    919093.91    919101.09   -402.79212 
  193500   0.10058087    7.1125094    919094.07    919101.25   -402.20771 
  194000    0.1000655    7.1143045    914541.61    914548.79   -404.16328 
  194500   0.10032821    7.1142228     911647.6    911654.78   -406.33282 
  195000   0.10038496    7.1117727    907294.46    907301.63   -406.68253 
  195500  0.099831021    7.1126237    902352.23    902359.41   -405.00417 
  196000   0.10048233    7.1124689    897538.43    897545.61   -404.71797 
  196500   0.10034972    7.1134262    892927.33    892934.51   -402.14666 
  197000   0.10012347    7.1140589    889246.61    889253.79   -404.81823 
  197500  0.099911976    7.1148157    886095.95    886103.13   -403.13663 
  198000   0.10051039    7.1139814    886096.03    886103.21   -405.89803 
  198500   0.10058208    7.1156158    883866.59    883873.77   -404.25659 
  199000   0.10019747    7.1142849    881967.44    881974.62   -402.69363 
  199500   0.10050083       7.1152    879995.87    880003.05   -403.22646 
  200000   0.10041379    7.1145008    876763.22     876770.4    -404.4148 
  200500   0.10030387    7.1165499     876763.3    876770.49   -407.11296 
  201000    0.1003152     7.117291    875253.43    875260.61   -404.86885 
  201500   0.10005432    7.1178955    875141.65    875148.84   -404.40352 
  202000  0.099887996    7.1172943    875075.89    875083.07   -406.44705 
  202500   0.10026931    7.1173762    875040.23    875047.41   -404.71639 
  203000   0.10032232    7.1169562     874959.7    874966.89   -404.37963 
  203500   0.10055768    7.1196972    876204.23    876211.42   -402.12116 
  204000   0.10035358    7.1213294    876040.98    876048.17   -405.36647 
  204500   0.10024182    7.1214802     876148.1    876155.28   -403.55921 
  205000   0.10000525    7.1231974    876425.63    876432.82    -404.2452 
  205500   0.10046213     7.120911    876377.26    876384.44   -402.69645 
  206000  0.099521287    7.1220243    877002.55    877009.74    -403.4746 
  206500   0.10005619    7.1207781    878017.72    878024.91   -404.72903 
  207000   0.10064373    7.1233252    879157.44    879164.63   -404.34617 
  207500   0.10045176    7.1238992    879389.05    879396.24   -403.77772 
  208000  0.099817383    7.1218777    880063.02     880070.2   -405.19728 
  208500  0.099772368    7.1230206     880063.1    880070.28   -405.22397 
  209000  0.099994446    7.1243019    880990.34    880997.53   -402.98657 
  209500    0.1001083    7.1248993     880709.6    880716.79   -405.07569 
  210000   0.10045005    7.1259649    880448.07    880455.26   -402.88718 
  210500   0.10048876    7.1283737    881546.67    881553.87   -405.26164 
  211000   0.10041816    7.1290877    881774.31     881781.5   -407.05447 
  211500     0.100336    7.1292777    881301.99    881309.19   -405.97818 
  212000   0.10050819    7.1281559    882013.05    882020.24   -404.28064 
  212500   0.10018357    7.1268576    882409.51    882416.71   -405.34619 
  213000   0.10006719    7.1286318    883046.35    883053.55   -406.37547 
  213500   0.10036005    7.1297993     883329.8    883336.99   -402.60429 
  214000   0.10013087    7.1321305    883498.22    883505.42   -404.09336 
  214500  0.099841662    7.1323874    884309.07    884316.27    -405.5724 
  215000   0.10030482    7.1312965    884868.49    884875.69   -405.93118 
  215500   0.10001347     7.133805    885719.97    885727.17   -403.48503 
  216000    0.1003494    7.1343454    886776.35    886783.55   -405.15094 
  216500  0.099780493    7.1346288    885894.07    885901.27   -403.86355 
  217000   0.10057848    7.1333325    886255.36    886262.56   -405.16642 
  217500   0.10039542    7.1370547    886255.35    886262.55   -405.71154 
  218000   0.10029436    7.1381126    886720.88    886728.09   -404.97063 
  218500   0.10002237    7.1390192    887858.03    887865.24   -403.99428 
  219000    0.1000866    7.1401698    887858.08    887865.29   -407.10714 
  219500   0.10066066    7.1392672    889493.25    889500.46   -403.96725 
  220000  0.099973264    7.1427033    890160.37    890167.58   -404.49363 
  220500   0.10020203    7.1449013    891386.98    891394.19   -402.45539 
  221000    0.1000223    7.1458064    891386.94    891394.15   -402.73157 
  221500    0.1003188    7.1446299    893082.89     893090.1   -403.98971 
  222000   0.10024031    7.1460442    896318.79       896326   -403.30937 
  222500   0.10034992    7.1457786    899692.41    899699.63    -404.1761 
  223000   0.10011729    7.1467087    901263.71    901270.92   -404.26912 
  223500   0.10011673    7.1467081    905288.03    905295.24   -404.26096 
  224000  0.099901949    7.1470983    907598.62    907605.84   -405.16249 
  224500   0.10000604    7.1470101    907598.63    907605.85    -406.1815 
  225000   0.10036101    7.1473738     909524.2    909531.42   -405.98251 
  225500   0.10040532    7.1476204    912037.95    912045.16   -402.19024 
  226000    0.1004345    7.1474764    914943.77    914950.99   -406.93752 
  226500   0.10007877    7.1491388    917215.01    917222.23   -403.53566 
  227000   0.10064396    7.1501326    917647.65    917654.86   -404.08807 
  227500   0.10037282    7.1514538    920662.91    920670.13    -404.0057 
  228000  0.099521857    7.1524444    921375.52    921382.74   -405.40362 
  228500   0.10041429    7.1528157    924800.34    924807.56    -404.7726 
  229000  0.099772932    7.1538843    928622.35    928629.57   -404.03531 
  229500   0.10043418     7.153391    931849.36    931856.58   -405.41744 
  230000   0.10028492    7.1528187    933599.75    933606.97   -403.42337 
  230500   0.10062834    7.1543148    937366.25    937373.47   -403.85335 
  231000   0.10027021    7.1537902    937366.16    937373.38    -404.5188 
  231500   0.10029903    7.1529097    940511.12    940518.34   -403.58849 
  232000   0.10052269    7.1526418    940987.07    940994.29   -404.71732 
  232500   0.10013048     7.153746     943529.1    943536.32   -402.95583 
  233000    0.1006401    7.1549909    944769.29    944776.51   -405.88094 
  233500   0.10043231    7.1569785    945591.01    945598.23   -403.53646 
  234000  0.099940822    7.1581356    945745.91    945753.13     -405.259 
  234500   0.10062763     7.156183    945987.63    945994.85   -403.47193 
  235000  0.099662188    7.1575445    946628.53    946635.75   -403.96716 
  235500    0.1004597    7.1577867    946565.97    946573.19   -406.48249 
  236000   0.10048459    7.1581185    947053.79    947061.01   -403.61303 
  236500   0.10010572    7.1589162    946275.42    946282.64   -403.43178 
  237000   0.10050594    7.1620562    945594.37    945601.59   -403.73726 
  237500   0.10014579    7.1617934    945594.29    945601.52   -404.25241 
  238000   0.10044157    7.1603121    945925.54    945932.77   -406.38413 
  238500   0.10008482    7.1601191    947290.32    947297.55   -406.17289 
  239000    0.1001601    7.1602339    946164.95    946172.17   -405.07979 
  239500   0.10002811    7.1610005    945217.89    945225.12   -404.48855 
  240000    0.1000517     7.159915    944733.86    944741.08   -406.55666 
  240500  0.099871872    7.1629814    943973.71    943980.94   -404.54186 
  241000   0.10050126    7.1646118    943667.92    943675.15   -405.95758 
  241500  0.099976597    7.1633004    941278.81    941286.04   -404.46731 
  242000   0.10054597    7.1648751    939420.91    939428.14   -404.07043 
  242500   0.10027507    7.1648792     937993.5    938000.73   -405.11419 
  243000   0.10032698    7.1637251    935871.33    935878.56   -406.19347 
  243500   0.10008536    7.1639507    935871.45    935878.68   -402.68983 
  244000   0.10025536    7.1640642    932229.33    932236.56   -403.43108 
  244500   0.09988033    7.1656535    929715.27     929722.5   -407.21938 
  245000   0.10024468    7.1655773    927208.28    927215.51   -406.99725 
  245500   0.10020129    7.1667702    926533.04    926540.27   -405.62395 
  246000   0.10027896    7.1664809    923723.17    923730.41   -405.85888 
  246500  0.099996347    7.1664251    921802.64    921809.88   -403.38475 
  247000   0.10063729    7.1655795    918834.31    918841.54   -404.12352 
  247500   0.10039135     7.166618    918834.19    918841.42   -405.46528 
  248000   0.10046249    7.1661772    916001.59    916008.82    -405.9439 
  248500    0.1005267    7.1649368    912394.15    912401.39   -403.25673 
  249000   0.09991233    7.1629665    912394.24    912401.47   -404.11549 
  249500  0.099927168    7.1635882    909898.49    909905.72   -404.55607 
  250000   0.10056864    7.1627321    906488.11    906495.34   -402.08662 
  250500  0.099930047    7.1619397    906487.79    906495.02   -406.78922 
  251000   0.10049828    7.1628316     903568.1    903575.33   -406.03273 
  251500   0.10008295    7.1644072    901424.25    901431.48   -404.03268 
  252000   0.10027892    7.1643619     900177.1    900184.33   -404.36313 
  252500    0.1003203    7.1644782    900177.05    900184.28   -403.95671 
  253000   0.10051748    7.1640784    898049.43    898056.66   -405.32223 
  253500   0.10062334    7.1621861    896778.26    896785.49   -404.71811 
  254000   0.10006099    7.1626977    896080.19    896087.42   -405.45275 
  254500   0.09989953    7.1618608    894797.07     894804.3   -405.14203 
  255000   0.10051164    7.1606078    894429.33    894436.55   -404.64938 
  255500   0.10039852    7.1607408    893979.48    893986.71   -401.62018 
  256000   0.10009333    7.1609761       893891    893898.23   -402.89749 
  256500   0.10038181    7.1627634    895335.55    895342.78   -404.63641 
  257000   0.10019452    7.1628894    895352.55    895359.78   -405.88431 
  257500  0.099986299    7.1637719    895082.24    895089.47   -401.79107 
  258000   0.10008622     7.164547    896076.79    896084.02   -404.78544 
  258500   0.10015159    7.1632892    898778.65    898785.88    -405.5893 
  259000   0.10021353    7.1642861    902905.52    902912.75   -403.98325 
  259500  0.099735972    7.1633864    902905.53    902912.76   -405.18024 
  260000   0.10020386    7.1631975    905453.55    905460.78   -403.45774 
  260500   0.10042981    7.1644126    907676.38    907683.61    -403.3548 
  261000  0.099849374    7.1632246    910824.08    910831.31   -406.92864 
  261500   0.10033617    7.1630385    914402.83    914410.06   -404.88821 
  262000   0.10027968    7.1619695    918273.45    918280.68   -405.90729 
  262500   0.10027828    7.1611521    922251.32    922258.55   -401.39637 
  263000   0.10019567    7.1617071    922251.24    922258.47   -405.76961 
  263500   0.10015705    7.1619415    925160.14    925167.36   -404.93766 
  264000   0.10014392    7.1621273    929066.92    929074.15   -403.53356 
  264500  0.099978934    7.1607606    933497.22    933504.45   -406.19359 
  265000   0.10022557    7.1611391    935697.82    935705.05   -404.97318 
  265500   0.09993027    7.1604777    937006.64    937013.86   -404.74823 
  266000   0.10005797    7.1606671    937006.53    937013.76   -404.22542 
  266500   0.10027128    7.1607548    939233.69    939240.91   -405.90851 
  267000   0.10049794    7.1596823    940588.07    940595.29    -406.6713 
  267500  0.099851051    7.1596073    943256.51    943263.73   -405.60549 
  268000   0.10008611    7.1579268    944739.96    944747.19   -401.49444 
  268500   0.10026385    7.1598549    946832.23    946839.46   -405.57885 
  269000   0.10015314    7.1608274    948135.76    948142.99   -406.79356 
  269500     0.100237    7.1620555    948573.47     948580.7   -401.54767 
  270000   0.10046844    7.1619051    947867.47     947874.7   -402.18155 
  270500  0.099950506    7.1600814    948665.32    948672.54   -403.77389 
  271000    0.1006212    7.1611088    947808.53    947815.76   -405.68409 
  271500   0.10001605    7.1596027    948821.86    948829.09   -406.48925 
  272000   0.10037045    7.1602596    950528.57     950535.8   -405.26318 
  272500   0.10014208    7.1606769    949827.11    949834.34   -405.82069 
  273000   0.10039744    7.1603996    950329.09    950336.31   -404.37596 
  273500   0.10017354    7.1597208    950329.14    950336.37   -403.71408 
  274000   0.10049157    7.1612658    948795.96    948803.19   -402.67505 
  274500   0.10027667    7.1613909    947937.41    947944.63   -404.83722 
  275000   0.10034079    7.1605198    946119.05    946126.28   -404.08794 
  275500    0.1003784    7.1592178    944122.63    944129.86   -406.55557 
  276000   0.10033282    7.1612233    944122.59    944129.82   -407.40286 
  276500    0.1001536    7.1602094    942813.22    942820.45   -403.67667 
  277000     0.100329    7.1599923    940733.65    940740.87   -407.95412 
  277500   0.10064444    7.1601046    939738.77    939745.99   -406.85854 
  278000   0.10005359    7.1595168    939738.79    939746.01   -404.76928 
  278500   0.10021193    7.1595704    937953.92    937961.15   -404.35163 
  279000   0.10033037    7.1590809    936998.59    937005.82   -406.24627 
  279500   0.10004379    7.1585411    934841.61    934848.84   -405.54493 
  280000    0.1002035    7.1597861    934189.03    934196.26   -401.32649 
  280500  0.099928176    7.1580579     933605.5    933612.72   -407.37286 
  281000  0.099962042    7.1591039    931143.16    931150.39   -403.63355 
  281500   0.10028281    7.1577686    929169.57    929176.79   -404.35592 
  282000  0.099906324    7.1569439    929169.62    929176.84   -401.97058 
  282500   0.10015535    7.1556049    929005.89    929013.11   -406.72336 
  283000   0.10088537    7.1559104    928104.81    928112.03   -405.95813 
  283500   0.10044762     7.155479    927917.12    927924.35   -407.86212 
  284000   0.10027328    7.1555062    928383.86    928391.09   -403.33242 
  284500  0.099944023    7.1540852    927915.34    927922.56   -403.07202 
  285000  0.099905227    7.1545395    927915.35    927922.57   -402.97789 
  285500   0.10021532     7.153607    927184.32    927191.54   -407.66495 
  286000    0.1000473    7.1548301    928086.18     928093.4   -403.94705 
  286500    0.1001743    7.1556224    928414.83    928422.05   -405.94249 
  287000   0.10005516    7.1555771    928174.86    928182.08   -404.41051 
  287500   0.10010625    7.1545093    930192.13    930199.35    -405.7191 
  288000  0.099704512    7.1540273    933471.94    933479.16   -403.50634 
  288500    0.1000159    7.1535913    933472.06    933479.28   -406.23979 
  289000  0.099877485     7.152296    935302.78       935310   -403.67475 
  289500   0.10005921    7.1513109     939319.1    939326.31   -403.53735 
  290000   0.10038482    7.1516935    941371.69    941378.91   -405.38722 
  290500   0.10007046    7.1506485     942015.7    942022.91   -405.90789 
  291000   0.10010735     7.149953    944141.32    944148.53   -405.85126 
  291500   0.10031938    7.1488074     944561.9    944569.11   -405.26893 
  292000   0.10012889    7.1487202    946384.24    946391.46   -404.08191 
  292500  0.099916391    7.1500194     947522.9    947530.12   -403.90666 
  293000  0.099856985    7.1489883    947522.99     947530.2   -406.85061 
  293500   0.10031917     7.148318    948595.18    948602.39   -407.52147 
  294000   0.10023548    7.1491711    948676.99    948684.21   -405.44525 
  294500   0.10004123    7.1480698    950485.44    950492.65   -403.40587 
  295000   0.10075387     7.145578    950098.47    950105.68   -404.43857 
  295500   0.10020269    7.1454817    952395.15    952402.36   -405.44582 
  296000   0.10026357    7.1463004     953334.4    953341.61   -406.16368 
  296500  0.099947252    7.1455498    953691.73    953698.94    -403.4006 
  297000   0.10039022    7.1471605    954218.97    954226.19   -404.74627 
  297500   0.10018563    7.1449147     954186.8    954194.02   -403.99093 
  298000   0.10032762    7.1463656    953647.08    953654.29   -402.78585 
  298500  0.099989386    7.1464978    953647.14    953654.35    -405.8961 
  299000   0.10032232    7.1451459    952047.64    952054.85   -403.33623 
  299500   0.10036448    7.1452019    952001.09     952008.3   -407.16972 
  300000   0.10027534    7.1454011    949999.99     950007.2   -402.99298 
  300500   0.10053282    7.1460708    949999.94    950007.15   -405.66563 
  301000   0.10017745    7.1464454    949368.01    949375.23    -403.5955 
  301500   0.10018694    7.1444173    948055.95    948063.16   -403.72129 
  302000   0.10014334    7.1432697    945824.52    945831.73   -404.59032 
  302500   0.10005349    7.1454782     943479.2    943486.41   -406.04778 
  303000   0.10006524    7.1460802    940531.71    940538.92   -405.89284 
  303500   0.10003589    7.1440106    939715.25    939722.46   -403.84696 
  304000   0.10018405    7.1467779    939115.12    939122.33   -404.41499 
  304500    0.1000703     7.147617    936870.74    936877.95   -403.94142 
  305000   0.10028329    7.1481283    934275.83    934283.05   -403.29169 
  305500   0.10054971    7.1495322     932887.3    932894.52   -404.87402 
  306000   0.10010842     7.149244    929691.78       929699   -405.83152 
  306500  0.099979467    7.1505276    927256.54    927263.76   -402.46876 
  307000   0.10058743    7.1496806    924204.54    924211.75   -404.02098 
  307500   0.10014022    7.1476493     923099.5    923106.71   -404.36236 
  308000   0.10026668    7.1503265    921543.82    921551.03   -403.69171 
  308500   0.10046102    7.1489972    920841.13    920848.34   -403.60821 
  309000   0.10043639    7.1479778    919484.09    919491.31    -405.4509 
  309500   0.10035605    7.1489186    917350.52    917357.74   -405.53045 
  310000   0.10039166    7.1483016    916146.44    916153.66   -403.01712 
  310500   0.10012943    7.1505234    916555.83    916563.04   -405.21513 
  311000    0.1002437    7.1517564     916555.8    916563.02    -406.0798 
  311500   0.10019939    7.1504141    918667.54    918674.76   -405.48339 
  312000   0.10015953      7.15174    918667.55    918674.77   -405.35132 
  312500    0.1002898    7.1506136    919631.83    919639.05   -406.80083 
  313000   0.10018858    7.1515106    921143.69    921150.91   -404.51109 
  313500   0.10013817    7.1529233    922294.67    922301.89   -405.16663 
  314000   0.10032912    7.1539734    924757.94    924765.16   -403.05702 
  314500  0.099497023    7.1564684    925169.38     925176.6   -405.73177 
  315000   0.10052984    7.1544726    926039.15    926046.37   -404.97538 
  315500   0.10030239    7.1545955    926039.26    926046.48   -404.37212 
  316000   0.10004822    7.1562834    928040.86    928048.08   -406.01828 
  316500   0.10037276    7.1564309    929204.21    929211.44    -404.9492 
  317000   0.10034619    7.1584541    929204.09    929211.32   -405.14734 
  317500  0.099943281    7.1571576    929148.86    929156.08    -406.7583 
  318000    0.1000954    7.1571663    928975.35    928982.57   -405.58799 
  318500   0.10029714    7.1568855    932345.95    932353.17   -403.46767 
  319000   0.10001121    7.1572903    934285.41    934292.64   -404.74301 
  319500   0.10072188    7.1581403    934401.94    934409.16   -404.88353 
  320000   0.10004623    7.1591417    935407.08     935414.3   -406.66817 
  320500    0.1005576    7.1607534    934849.76    934856.98   -404.03751 
  321000    0.1004406    7.1618508     933650.1    933657.33   -406.73412 
  321500   0.10052382    7.1637083    932429.08    932436.31   -404.04369 
  322000   0.10005899     7.160667    931399.74    931406.96    -406.3952 
  322500  0.099757702    7.1611631    930458.02    930465.25   -403.73534 
  323000   0.10052462    7.1624161    930457.97     930465.2   -403.51912 
  323500  0.099747554    7.1647367    927918.89    927926.12   -403.50348 
  324000   0.10040272     7.164767    927419.74    927426.97   -407.35327 
  324500  0.099673432    7.1632519    927437.24    927444.47   -404.25398 
  325000   0.10051309    7.1629251    927539.87     927547.1   -405.03682 
  325500   0.10004148    7.1654918    928963.46    928970.69   -404.63857 
  326000   0.10046166    7.1650795    930227.56    930234.79   -403.89932 
  326500   0.10024484    7.1645353    930309.35    930316.58   -406.53848 
  327000   0.10005954    7.1651735    932581.15    932588.38   -405.25786 
  327500    0.1002074    7.1652169    933227.31    933234.54   -405.30442 
  328000  0.099857415    7.1669634     934536.5    934543.74   -402.37096 
  328500   0.10025527    7.1660138    934392.65    934399.88   -405.13984 
  329000   0.10013309    7.1650464    935170.74    935177.97   -404.43866 
  329500    0.1006098    7.1651482     935186.7    935193.93   -404.26581 
  330000   0.10041799    7.1669626    938051.48    938058.72   -405.22712 
  330500   0.10026681    7.1679017    938360.21    938367.45   -405.65299 
  331000   0.10017095    7.1694761    940371.93    940379.16     -405.788 
  331500   0.10034317    7.1714185    940552.37    940559.61   -405.26915 
  332000   0.10016158    7.1725635     941730.4    941737.64   -404.19937 
  332500   0.10032163    7.1722621    942343.08    942350.32   -406.22364 
  333000   0.10030768    7.1698984    943674.76       943682   -405.00103 
  333500   0.10015216    7.1717327    944389.82    944397.06   -404.75205 
  334000   0.10024319    7.1716185    945426.47    945433.71   -405.51184 
  334500   0.10004704    7.1713468    945583.78    945591.02   -404.79721 
  335000   0.10010838    7.1710968    944860.58    944867.82    -405.6835 
  335500   0.10003444    7.1715605    944860.53    944867.77   -405.53558 
  336000   0.10022937    7.1718154    944052.83    944060.07   -404.78129 
  336500   0.10051457    7.1728523    944607.89    944615.13   -404.62253 
  337000   0.10016959    7.1719349    944287.67    944294.91   -403.92142 
  337500   0.10026749    7.1730005    946319.77    946327.01   -404.52569 
  338000    0.1001281    7.1742602    946319.74    946326.99   -405.14875 
  338500   0.10037763    7.1737161    947118.45    947125.69   -405.78243 
  339000   0.10032459    7.1764587    947518.45    947525.69   -404.79861 
  339500   0.10032548    7.1762967    946735.69    946742.94   -405.74748 
  340000   0.10044119    7.1759933    945584.13    945591.37   -406.53436 
  340500   0.10039864    7.1761639    945214.82    945222.06    -407.8264 
  341000   0.10028005     7.178025    944865.46    944872.71   -405.26063 
  341500   0.10009236    7.1783749    944865.47    944872.72   -401.92498 
  342000   0.10017033    7.1802579    943611.45     943618.7   -404.16116 
  342500   0.10015182    7.1803599    940108.67    940115.92   -404.53622 
  343000  0.099826143    7.1824291    939303.53    939310.78   -404.67419 
  343500   0.10059137    7.1826219    937548.67    937555.92   -406.68624 
  344000   0.10046577    7.1842608    937548.68    937555.93   -405.12898 
  344500  0.099995222    7.1828335    936656.21    936663.45   -403.50416 
  345000  0.099854587     7.183786    936314.01    936321.27   -403.10759 
  345500   0.10054699    7.1834476    936313.93    936321.18   -402.80063 
  346000   0.10012591     7.183066    934105.33    934112.58   -403.65327 
  346500   0.10030024    7.1822921    932159.05     932166.3   -402.85811 
  347000   0.10018238     7.180552    930933.36    930940.61   -403.69854 
  347500  0.099611226    7.1795556    929226.45    929233.69   -405.49033 
  348000   0.10023152     7.180925     929226.4    929233.65   -403.20073 
  348500   0.10050017    7.1821301    927537.69    927544.93   -405.32133 
  349000    0.1001855     7.180777    928298.97    928306.22   -403.16739 
  349500    0.1002961    7.1800106    928603.81    928611.06   -404.16751 
  350000   0.10017668    7.1811688    927971.82    927979.07   -405.96979 
  350500  0.099865717    7.1790879    927971.87    927979.12   -406.12144 
  351000  0.099980178    7.1824961    926898.93    926906.18   -404.09986 
  351500  0.099928345    7.1810451    927156.34    927163.59   -402.96863 
  352000   0.10035633    7.1810027    926755.61    926762.86   -404.22482 
  352500   0.10020908    7.1809244    925845.61    925852.86   -407.02693 
  353000     0.100276    7.1812525    925849.71    925856.96   -404.93026 
  353500   0.10017044    7.1812222    925849.75       925857   -406.73813 
  354000   0.10019303    7.1819608    925046.55     925053.8   -404.76876 
  354500   0.10048032    7.1818989    926068.97    926076.22   -405.20595 
  355000   0.10010107    7.1806638    927355.54    927362.79   -404.58033 
  355500   0.10038358     7.180345    927142.56    927149.81    -405.6142 
  356000   0.10012193    7.1814661    927785.68    927792.93   -404.15238 
  356500   0.10036872    7.1809113    927785.55     927792.8   -403.32131 
  357000   0.10049732    7.1828728    930331.99    930339.24    -405.9737 
  357500   0.10018786    7.1821058     931616.6    931623.85   -403.53977 
  358000   0.10047174    7.1807648    933036.21    933043.45   -403.94067 
  358500   0.10034261    7.1817214    934263.09    934270.33   -405.14691 
  359000   0.10004302    7.1822373    935418.66     935425.9    -405.4779 
  359500   0.10003231     7.183435    935723.99    935731.24   -406.14214 
  360000   0.10069401    7.1846487    935723.85     935731.1   -404.54625 
  360500   0.10029575    7.1856664    938255.17    938262.42   -403.18332 
  361000    0.1004516     7.182628    940949.47    940956.72    -404.3838 
  361500   0.09970992    7.1819573    941530.61    941537.86   -404.66582 
  362000   0.10017687    7.1823384    941246.75    941253.99   -404.29409 
  362500   0.10052855    7.1800798    943936.29    943943.53   -403.69801 
  363000   0.10018167     7.179916    945862.49    945869.73   -404.57352 
  363500    0.1003347    7.1792802    945862.57    945869.82   -403.42523 
  364000   0.10041565    7.1800304    948302.45    948309.69   -403.93062 
  364500   0.10038027    7.1781964    949583.39    949590.63   -402.29477 
  365000   0.10041538     7.179518    951437.72    951444.97   -409.73979 
  365500   0.10054226    7.1794603    952351.46    952358.71   -403.50457 
  366000   0.10029359    7.1800256    954149.35     954156.6    -403.8207 
  366500    0.1004049    7.1795036    956482.22    956489.47    -404.0527 
  367000   0.10037394     7.179775    957501.61    957508.86   -404.66739 
  367500   0.10047627    7.1791557    957501.57    957508.82   -403.27624 
  368000  0.099958724    7.1789737    958621.02    958628.26   -403.20982 
  368500   0.10069038    7.1787034    959894.02    959901.27   -405.41138 
  369000   0.10039493     7.176937     962640.8    962648.05   -403.35346 
  369500   0.10072866    7.1766642    963360.49    963367.73    -405.5117 
  370000   0.10017483    7.1774016    965464.41    965471.66   -406.91102 
  370500   0.10032401     7.175809    965464.36     965471.6   -405.41216 
  371000   0.10024259    7.1750268    966126.82    966134.06   -403.60442 
  371500   0.10009844    7.1768455    968213.32    968220.56   -404.17698 
  372000   0.10039944    7.1764986    969868.57    969875.81   -404.93717 
  372500   0.10042285    7.1772982    970943.27    970950.52   -403.66696 
  373000  0.099892923    7.1760427    973297.73    973304.97    -404.6288 
  373500  0.099985492     7.175939    973297.81    973305.05   -403.54519 
  374000   0.10061709    7.1755698    972771.31    972778.55   -403.29973 
  374500   0.10049214    7.1739224    973169.16     973176.4   -405.82238 
  375000   0.10058282     7.175792    972756.42    972763.66   -406.99907 
  375500   0.10071246    7.1754565    972357.85    972365.09   -404.48911 
  376000   0.10004444    7.1733689    971469.65    971476.89   -407.13459 
  376500    0.1004749    7.1722273    971547.59    971554.83   -404.71415 
  377000   0.10030488    7.1726607    971547.58    971554.82   -404.32337 
  377500    0.1002887    7.1705825    972625.71    972632.95   -406.46227 
  378000   0.10009413    7.1713553    973443.89    973451.13   -404.59193 
  378500   0.10010348    7.1736824    975169.17    975176.41   -404.57988 
  379000   0.10050438    7.1723306    975573.99    975581.23   -403.76695 
  379500   0.09992984    7.1699425    975928.36     975935.6   -403.75618 
  380000   0.10017053    7.1710812    976108.72    976115.96   -405.44124 
  380500   0.10004145    7.1715094     978086.5    978093.74   -404.14119 
  381000   0.10052574    7.1703106    978086.45    978093.69   -406.96895 
  381500   0.10051024    7.1704885    976940.44    976947.68   -404.42327 
  382000   0.10055126    7.1705469    976208.77    976216.01   -403.85833 
  382500  0.099714357    7.1708192    975395.61    975402.85   -407.41401 
  383000   0.10010612    7.1694527    974265.14    974272.37   -403.82257 
  383500  0.099961179     7.168334    974518.45    974525.69   -403.78145 
  384000  0.099717607    7.1669826    975396.21    975403.44   -406.04152 
  384500  0.099727923       7.1678    975673.62    975680.85   -405.66431 
  385000   0.10054684    7.1675797    975673.43    975680.66   -407.47465 
  385500   0.10002703    7.1681049    975254.03    975261.26   -404.59439 
  386000   0.10007706    7.1664757    974062.29    974069.53   -402.92939 
  386500    0.1000224    7.1663585    972737.82    972745.05   -404.88547 
  387000   0.10092723    7.1650015    972737.69    972744.93   -405.91328 
  387500   0.10015942    7.1641538     971950.7    971957.93   -402.59287 
  388000   0.10042564    7.1652878    971137.73    971144.97   -404.86226 
  388500   0.10027263    7.1649049    971137.92    971145.15   -403.87927 
  389000  0.099999929    7.1645944    968944.88    968952.11   -404.87614 
  389500   0.10075266    7.1629487    967883.05    967890.28   -403.68491 
  390000   0.10043309    7.1644132    967174.73    967181.96   -404.69435 
  390500   0.10014725    7.1638458     967174.5    967181.73   -403.98969 
  391000   0.10028971    7.1642815    963989.52    963996.75    -405.2843 
  391500   0.10011494    7.1624869    960736.43    960743.66   -403.71042 
  392000  0.099644294    7.1637805     959934.1    959941.33   -403.49229 
  392500   0.10020223     7.163211    957674.26    957681.49   -405.17014 
  393000   0.10008723    7.1648249    954899.83    954907.06   -407.18565 
  393500   0.10057929    7.1636281    954563.03    954570.26   -407.14023 
  394000  0.099989778    7.1643399    954563.16    954570.39   -405.91071 
  394500   0.10009831    7.1635195    952461.67     952468.9   -405.70534 
  395000    0.1003214    7.1633421    952184.71    952191.94   -408.87098 
  395500  0.099933823    7.1632739    950134.49    950141.72   -403.65587 
  396000   0.10006695    7.1640797    948202.12    948209.35   -402.65838 
  396500   0.10012238    7.1628806    945616.82    945624.05   -405.77428 
  397000   0.10047381    7.1631453    943300.54    943307.77   -404.05676 
  397500   0.10014674    7.1637258    941878.99    941886.22   -403.12701 
  398000    0.1001215    7.1643892    940571.19    940578.42   -404.63928 
  398500    0.1005359    7.1634714    939112.87     939120.1   -405.13229 
  399000   0.10034682    7.1649126    937676.63    937683.86   -403.01895 
  399500   0.10020033    7.1648412    935862.27     935869.5   -403.49165 
  400000   0.10046026    7.1644785    934336.85    934344.08   -402.97593 
  400500    0.1002894    7.1629664    934336.85    934344.08   -405.85895 
  401000   0.10020505    7.1627366     933817.9    933825.12   -403.16375 
  401500    0.1002992    7.1616603    932070.02    932077.24   -403.36397 
  402000   0.10071481     7.163074     930717.7    930724.93   -403.23223 
  402500   0.10047844    7.1639209    928982.28    928989.51   -404.38124 
  403000   0.10006866    7.1646051    926399.84    926407.07   -407.07962 
  403500    0.1002855    7.1642686    924356.44    924363.67   -402.17415 
  404000    0.1001524    7.1654219    924356.49    924363.73   -406.14863 
  404500    0.1001395    7.1637095    923373.28    923380.51   -405.30133 
  405000   0.10026907    7.1647277    922202.23    922209.46   -404.88297 
  405500   0.10027503    7.1668423    920729.16    920736.39   -403.24334 
  406000   0.10038567    7.1663842    920492.66    920499.89   -403.07253 
  406500   0.09996427    7.1642352    918915.76    918922.99   -405.75517 
  407000   0.10042609    7.1661852    918682.42    918689.65   -404.43456 
  407500   0.10060446    7.1652986    918529.73    918536.97   -404.04512 
  408000   0.10062035    7.1642154     918404.5    918411.73   -405.01394 
  408500   0.10023984    7.1634219    918496.56    918503.79   -405.42284 
  409000   0.10036266    7.1633792    919201.06    919208.29    -404.7521 
  409500   0.10025572    7.1638811    919065.44    919072.67   -404.79499 
  410000    0.1001424    7.1648277    920264.25    920271.48   -405.05916 
  410500   0.10036239    7.1650599    921141.79    921149.02   -404.52174 
  411000   0.10037853    7.1640709    921496.46    921503.69   -403.38999 
  411500  0.099941939    7.1629428    921552.76    921559.99   -406.61728 
  412000   0.10046267     7.163907    920790.14    920797.37    -404.6669 
  412500   0.10059414    7.1634448    921369.83    921377.06   -405.28863 
  413000  0.099883122    7.1652958    922593.61    922600.84   -406.22787 
  413500   0.10058269    7.1664196    922593.61    922600.85   -404.32354 
  414000   0.10013566    7.1649695    923785.84    923793.07   -406.06797 
  414500   0.10029359    7.1643472    924321.31    924328.54   -405.66552 
  415000   0.10038504    7.1636448    924480.19    924487.42   -405.48022 
  415500   0.10032485    7.1648008    925424.06    925431.29   -406.11091 
  416000   0.10067263    7.1657171    925424.03    925431.26   -402.92141 
  416500   0.10044407    7.1661184    927353.71    927360.94   -404.14014 
  417000   0.10044608    7.1648377    929261.09    929268.32   -403.18074 
  417500  0.099792323    7.1644361    932312.48    932319.71   -406.09098 
  418000  0.099680132    7.1637994     934611.1    934618.33   -406.79538 
  418500    0.1003098    7.1623831    935720.17    935727.39   -404.83627 
  419000   0.10077044    7.1627179    939087.89    939095.12   -404.36297 
  419500   0.10042794    7.1630117    940325.42    940332.65    -405.7947 
  420000   0.10009144    7.1637085    940276.95    940284.18   -405.42004 
  420500   0.10005733    7.1659374    940756.14    940763.37   -405.12332 
  421000   0.10051259    7.1645815    940756.08    940763.31   -404.66665 
  421500   0.10026087    7.1636472    939259.09    939266.32   -405.38124 
  422000    0.1003018    7.1639073    939003.43    939010.66   -402.64465 
  422500   0.10032852    7.1647219    938442.69    938449.92    -404.8902 
  423000   0.10032855    7.1638304    938521.73    938528.96   -404.97731 
  423500   0.10027047    7.1652767    938180.47     938187.7   -406.11175 
  424000   0.10020604    7.1650576     937569.3    937576.54   -405.97598 
  424500   0.10040846    7.1647167    938156.82    938164.06   -404.46043 
  425000  0.099881891    7.1655152    938156.79    938164.02   -406.48574 
  425500    0.1004381    7.1643784    937621.85    937629.08   -405.15909 
  426000   0.10023902    7.1652831    936504.07    936511.31   -405.77822 
  426500    0.1005641    7.1672809    935118.09    935125.32   -402.71795 
  427000   0.10010903    7.1657962    933194.43    933201.66   -406.52835 
  427500   0.10006201    7.1652853    931442.06    931449.29   -405.61115 
  428000   0.10031533     7.165252    930379.99    930387.22   -406.62174 
  428500   0.10054632    7.1674703    929036.54    929043.78   -405.28521 
  429000   0.10027198    7.1668274    928001.38    928008.62   -405.37329 
  429500  0.099926701     7.167617    927409.06    927416.29   -403.72615 
  430000   0.10047669    7.1684702    926680.58    926687.82   -405.11215 
  430500   0.10031797    7.1678297    924629.29    924636.53   -404.53761 
  431000   0.10046221     7.167513    922380.65    922387.89   -403.21679 
  431500   0.10038774    7.1664477    919909.09    919916.32   -404.84316 
  432000   0.10034236    7.1650305    918510.85    918518.08   -404.16477 
  432500   0.10017271    7.1668937     914957.7    914964.93   -405.76799 
  433000   0.10073694     7.164803    914957.62    914964.85   -405.68728 
  433500   0.10006907     7.163908    911410.61    911417.84   -403.06506 
  434000   0.10069344    7.1656369     908505.2    908512.43   -404.68219 
  434500   0.10046567    7.1622331    906142.57     906149.8   -403.55832 
  435000   0.10025498    7.1605484    904148.17     904155.4   -404.36141 
  435500   0.10024918    7.1585636    902739.64    902746.86   -404.73532 
  436000   0.10042824     7.160031    900844.57     900851.8   -403.93979 
  436500   0.10041631    7.1623277    898177.61    898184.84   -405.38254 
  437000   0.10039502    7.1626274    897804.65    897811.88   -403.80011 
  437500   0.10031572    7.1606829    897804.72    897811.94   -405.27728 
  438000   0.10054216    7.1619711    896782.36    896789.59   -405.76723 
  438500   0.10038435    7.1605997    896908.64    896915.86   -404.74352 
  439000   0.10031046    7.1585979    896147.52    896154.74   -403.71627 
  439500   0.10055793    7.1595024    895151.93    895159.15   -406.60865 
  440000   0.10028813    7.1587257    896147.59    896154.82   -400.98189 
  440500   0.10039941    7.1586755    896003.19    896010.42   -403.70521 
  441000   0.10041589    7.1604081    896003.12    896010.35   -405.08227 
  441500     0.100174    7.1597527    900301.58    900308.81   -404.79584 
  442000   0.10014616    7.1594186    902470.88    902478.11   -403.15689 
  442500   0.10001369    7.1587272    903718.99    903726.21   -403.07704 
  443000   0.10054813    7.1606564    903719.07     903726.3   -403.76508 
  443500   0.10027094    7.1593682    905487.84    905495.07   -403.21925 
  444000  0.099964594    7.1588946    907540.61    907547.83   -405.88852 
  444500   0.10015864    7.1592459    909732.06    909739.28   -405.97793 
  445000   0.10052215    7.1586078    910420.58    910427.81   -404.59802 
  445500   0.10026233    7.1587059     910420.5    910427.72   -403.74816 
  446000   0.10044556    7.1598207    912528.65    912535.87    -404.2534 
  446500   0.10035813    7.1589702    914741.89    914749.11   -406.81763 
  447000   0.10043359    7.1592143    916436.98     916444.2   -402.63621 
  447500    0.1001232    7.1588884    918254.36    918261.58   -405.60963 
  448000   0.10008035    7.1576398    918254.42    918261.65   -403.52161 
  448500   0.10019789    7.1577962    921710.83    921718.05   -403.82352 
  449000   0.10024088     7.156586    923101.17    923108.39   -404.54013 
  449500   0.10032336      7.15665    923101.11    923108.33   -405.32997 
  450000   0.10022077    7.1563241    928245.39    928252.61   -403.96515 
  450500   0.10027852    7.1554477    928245.33    928252.56   -405.42197 
  451000   0.10016923    7.1537627    930249.77    930256.99   -405.29592 
  451500   0.10047782    7.1553005    932531.97    932539.19   -403.87163 
  452000   0.10044398    7.1552473    933472.13    933479.35   -404.58174 
  452500   0.10028288    7.1551179    934383.81    934391.03   -404.87657 
  453000   0.10012529     7.153671    934121.11    934128.33   -403.59551 
  453500   0.10018629    7.1527319    933877.78       933885   -403.73835 
  454000   0.10012193    7.1527682    934524.78       934532   -405.71312 
  454500    0.1004182    7.1539852    934039.53    934046.75   -403.11088 
  455000   0.10024359    7.1539527    933215.95    933223.17   -405.37177 
  455500    0.1003377    7.1548618     931770.5    931777.72   -402.26165 
  456000   0.10016752    7.1538213    931770.49    931777.71   -403.68904 
  456500   0.10043229    7.1534877    930598.18     930605.4   -404.43667 
  457000   0.10038878    7.1542136    929662.41    929669.63   -403.78167 
  457500   0.10024533    7.1554299    927922.05    927929.27   -405.53469 
  458000   0.10029742    7.1541517    925941.41    925948.63   -404.68081 
  458500   0.10047842    7.1527308    923196.11    923203.33   -403.36266 
  459000   0.10047322    7.1519473    922219.77    922226.99   -406.04991 
  459500  0.099949334    7.1541896    920509.82    920517.04   -403.57044 
  460000   0.10009515    7.1539451    920509.77    920516.99   -403.80362 
  460500  0.099860834    7.1549421    918693.83    918701.05   -403.78912 
  461000   0.10031344     7.153178    917505.77    917512.99   -404.58144 
  461500   0.10036439    7.1550126    914870.53    914877.75   -402.34202 
  462000   0.10060478    7.1530781     912292.5    912299.72   -407.23938 
  462500   0.10062197    7.1544322    910026.38     910033.6   -404.25715 
  463000   0.10024382    7.1537826    910026.38     910033.6   -406.18909 
  463500   0.10021075    7.1546504    907388.04    907395.27   -404.13788 
  464000   0.10092136     7.155304    906088.01    906095.23    -400.9486 
  464500   0.10042684    7.1558995    903891.72    903898.95   -407.16805 
  465000   0.09990611    7.1563013    900791.42    900798.65   -402.64557 
  465500   0.10022979    7.1574559    900791.44    900798.67   -403.85749 
  466000   0.10012702    7.1576168    898777.74    898784.96    -403.8828 
  466500   0.10052837    7.1566988    897256.88     897264.1   -404.79147 
  467000   0.09987095    7.1574405    897256.91    897264.13   -403.43499 
  467500     0.100404    7.1568023    895956.98    895964.21   -404.11326 
  468000   0.10026492    7.1577788    894980.88     894988.1   -406.19552 
  468500   0.10002286    7.1576898    894765.28     894772.5   -406.40774 
  469000  0.099965731    7.1576398    894242.37    894249.59   -402.77838 
  469500   0.10026639    7.1605689    894979.08    894986.31   -405.77683 
  470000   0.10024017    7.1616733    895428.83    895436.06   -404.96725 
  470500  0.099862512    7.1619383    896248.77       896256   -401.72188 
  471000   0.10033205    7.1616624    898600.01    898607.24   -406.83935 
  471500   0.10051666    7.1618298    900053.71    900060.94   -404.16934 
  472000   0.10021127    7.1659046    902879.43    902886.66   -405.48859 
  472500   0.10033352     7.165294    903012.34    903019.57   -405.37744 
  473000  0.099944858    7.1667565    904649.47     904656.7   -405.05654 
  473500   0.10013757    7.1667194    906578.28    906585.51   -404.30605 
  474000   0.10069399     7.166261    907839.34    907846.57   -404.76922 
  474500  0.099764361    7.1678638     909953.8    909961.03    -404.2337 
  475000  0.099964183    7.1676819    909953.64    909960.88   -403.91907 
  475500   0.10028092     7.168068    913276.38    913283.62   -404.54649 
  476000   0.10055669    7.1681035    913836.05    913843.29   -405.49585 
  476500  0.099946605    7.1674735    916297.21    916304.45   -403.20191 
  477000    0.1003742    7.1697998    916297.27    916304.51   -403.76385 
  477500   0.10022476    7.1706615    919987.82    919995.06   -406.61513 
  478000   0.10027157    7.1712056    919987.69    919994.92   -404.91582 
  478500   0.10029965    7.1726564    920676.67    920683.91   -403.09769 
  479000   0.10056689    7.1729376    923213.28    923220.52   -407.92042 
  479500   0.10030614    7.1741525    923495.56     923502.8   -403.93961 
  480000      0.10032     7.173557    925093.44    925100.68    -405.3328 
  480500   0.10032479    7.1753921    927361.13    927368.37   -403.59473 
  481000   0.10029521    7.1760812    928401.01    928408.25   -405.92913 
  481500    0.1000085    7.1756439    930951.45    930958.69    -404.0527 
  482000  0.099838257    7.1768926    933088.59    933095.84   -404.97819 
  482500    0.1007062    7.1784275    935041.45     935048.7    -405.6198 
  483000    0.1001855    7.1794056    936300.61    936307.85   -404.64934 
  483500   0.10012207    7.1774938    936300.72    936307.96   -406.80204 
  484000   0.10040445    7.1786829    937934.37    937941.61    -404.1608 
  484500  0.099992433    7.1789784    939649.67    939656.92   -408.21086 
  485000    0.1001116    7.1791797    941392.77    941400.01   -402.60419 
  485500   0.10034832    7.1805293    943676.16    943683.41   -404.86736 
  486000   0.10014425    7.1806482    942988.61    942995.86   -405.69372 
  486500   0.10039457    7.1811782    943181.15     943188.4   -403.87655 
  487000    0.1002479    7.1810392    944328.15     944335.4   -404.35988 
  487500   0.10049329    7.1830065    944860.75       944868   -403.62646 
  488000  0.099923309    7.1829067    944860.86    944868.11    -404.8194 
  488500   0.10033083    7.1813884    944808.61    944815.86   -406.22865 
  489000   0.10033218     7.181353    944666.92    944674.17    -402.3013 
  489500   0.10017719    7.1837438    943855.13    943862.38   -405.63819 
  490000   0.10025413    7.1815892    942795.28    942802.53   -405.28972 
  490500    0.1006454    7.1822598    943773.36    943780.61   -407.32202 
  491000   0.10028067    7.1826483    943773.44    943780.69   -405.85899 
  491500   0.10022688    7.1821302    944227.85     944235.1   -406.36836 
  492000   0.10012772    7.1819506    944015.88    944023.13    -404.9985 
  492500   0.10045809     7.181071    943438.46    943445.71   -403.91812 
  493000   0.10021114    7.1804948    944386.86    944394.11   -402.81375 
  493500   0.10025679    7.1796206    944564.56    944571.81   -403.16454 
  494000   0.10002719    7.1822158    944482.15     944489.4   -403.15234 
  494500   0.10019203    7.1824265    944027.22    944034.47    -406.9718 
  495000    0.1000766    7.1819275    944027.17    944034.42   -402.35367 
  495500   0.10032064    7.1836938    944885.06    944892.31   -401.70919 
  496000   0.10033763    7.1842808    945470.82    945478.07   -407.11804 
  496500   0.10042326     7.184653    945718.13    945725.38   -403.61523 
  497000   0.10039661    7.1833943    944733.24    944740.49   -404.00247 
  497500    0.1000223    7.1822586    943980.22    943987.47   -406.91043 
  498000   0.10050571     7.184028    943828.37    943835.62    -405.8468 
  498500   0.10052656    7.1842333    943899.26    943906.51   -405.11511 
  499000   0.10006049    7.1856017    944165.11    944172.36   -405.31408 
  499500  0.099929545    7.1837122     945271.8    945279.05   -403.51524 
  500000   0.10039805     7.185032    944558.63    944565.88   -405.05152 
  500500   0.10036764    7.1845661    944558.64    944565.89   -404.88583 
  501000   0.10013007    7.1859331    945708.66    945715.91   -404.28114 
  501500   0.10015306    7.1866959    944291.11    944298.36    -403.4548 
  502000   0.10044974    7.1856335    943876.93    943884.19   -404.38896 
  502500   0.10022109    7.1849226    943411.41    943418.67   -406.18701 
  503000  0.099818324    7.1843559    942006.58    942013.84   -405.63984 
  503500   0.10054604    7.1825597    942055.92    942063.17   -402.61655 
  504000   0.10011141    7.1827328    941210.65     941217.9   -402.77885 
  504500   0.10036587    7.1832454    941210.62    941217.87   -408.44189 
  505000  0.099829577    7.1836916    941024.41    941031.66   -401.05073 
  505500  0.099886149     7.183574     940164.4    940171.65   -403.30757 
  506000   0.10005155    7.1838104    940164.31    940171.56   -407.49488 
  506500   0.10018356    7.1828498    939226.39    939233.64   -404.52018 
  507000   0.10009432    7.1842866     939404.5    939411.75   -407.17487 
  507500  0.099633362    7.1833459    939388.58    939395.83    -403.4175 
  508000   0.10031349    7.1811711     939931.6    939938.85   -405.01194 
  508500   0.10001831    7.1819512    939734.81    939742.06   -404.73311 
  509000   0.10023321    7.1822665    938074.78    938082.03   -405.24888 
  509500   0.10071291    7.1822288    938074.94    938082.19   -404.02516 
  510000   0.10030365    7.1823176    939351.55     939358.8    -404.0848 
  510500   0.10026849    7.1814518    938145.51    938152.76   -405.84372 
  511000   0.10007861    7.1819432    937624.18    937631.43    -403.5781 
  511500    0.1000886    7.1809518     935969.4    935976.64   -403.71885 
  512000   0.10017855    7.1796912    935065.21    935072.46   -403.76734 
  512500   0.10053903    7.1802495    935394.13    935401.38   -405.28901 
  513000   0.10003371     7.179525    935950.89    935958.14   -405.86473 
  513500   0.10001289    7.1809141    937473.32    937480.57   -401.39601 
  514000   0.10020763    7.1799438    939116.89    939124.13    -406.6041 
  514500   0.10030862     7.179645    939320.31    939327.55   -405.91985 
  515000  0.099659732    7.1784956    939471.31    939478.55   -404.73601 
  515500   0.10045626     7.177418     939454.1    939461.34   -402.97207 
  516000   0.10012821    7.1762173    939313.87    939321.11   -407.80462 
  516500   0.10041238    7.1762455    939483.62    939490.87   -404.53305 
  517000   0.10028592    7.1774607    939483.75    939490.99   -403.49974 
  517500  0.099927755    7.1765522    939259.58    939266.82   -405.62452 
  518000   0.10009783    7.1729699    940757.96     940765.2   -404.54072 
  518500   0.10033295    7.1748413    941074.04    941081.29    -404.4862 
  519000   0.10045929    7.1744169    941401.97    941409.21   -402.72521 
  519500   0.10034428    7.1735951     940618.7    940625.94   -405.96158 
  520000    0.1002127    7.1727568       938832    938839.24   -403.41111 
  520500   0.10012732    7.1712002    938018.51    938025.75   -403.50416 
  521000   0.10054676    7.1701373    938018.72    938025.96    -403.2245 
  521500    0.1003069    7.1703584     936295.2    936302.44   -408.67523 
  522000   0.10005571    7.1691632    935878.15    935885.39   -406.41145 
  522500  0.099936519    7.1694458    934494.75    934501.98   -404.49284 
  523000  0.099928781    7.1691971     932690.4    932697.63   -404.26791 
  523500   0.10038702    7.1695627    933688.91    933696.14    -406.4618 
  524000   0.10035975    7.1723112    933610.15    933617.39   -406.67121 
  524500   0.10004673     7.170156    933610.14    933617.38   -405.14852 
  525000   0.10026975    7.1703017     931982.6    931989.84   -406.87756 
  525500   0.10065425    7.1670908    931947.04    931954.27   -403.61649 
  526000   0.10020735    7.1668595    931947.28    931954.51   -404.91786 
  526500   0.10017087    7.1676099    930782.45    930789.68   -404.11832 
  527000   0.09983638    7.1673967    930613.12    930620.36   -404.89462 
  527500   0.10032736     7.168891    930502.71    930509.95   -404.32298 
  528000  0.099847845    7.1690066    929971.86    929979.09   -406.67839 
  528500   0.10018735    7.1671721       929305    929312.24   -405.30085 
  529000     0.100208    7.1673748    929926.94    929934.17    -403.7683 
  529500   0.10034818     7.168943    929927.01    929934.24   -404.90874 
  530000   0.10041385    7.1687257       930703    930710.23   -406.42976 
  530500  0.099615591    7.1680132    930740.57     930747.8   -405.21905 
  531000   0.10010196    7.1675098    930863.37    930870.61   -404.40222 
  531500   0.10006017    7.1660043     929213.4    929220.63   -405.72149 
  532000  0.099832968    7.1661647     929955.8    929963.04   -404.49438 
  532500   0.10054546    7.1657381    929290.98    929298.21   -405.81964 
  533000    0.1000487    7.1652583    928024.78    928032.01   -405.12863 
  533500   0.10015537    7.1652008    928024.78    928032.01   -405.81057 
  534000   0.10020246    7.1635954     927561.8    927569.03   -405.71134 
  534500   0.10010865    7.1629059    928411.97     928419.2   -404.64194 
  535000   0.10035218    7.1637052    928485.69    928492.92   -406.87691 
  535500    0.1004536    7.1638642    928118.04    928125.27   -405.54895 
  536000   0.10043203    7.1650543    929354.96    929362.19   -405.33966 
  536500   0.10035323    7.1637195    929906.89    929914.12   -404.39497 
  537000   0.10051781    7.1641433    929906.86     929914.1   -403.77172 
  537500   0.10033176    7.1637201    931366.09    931373.32   -406.60972 
  538000   0.10016856    7.1661573    933179.45    933186.68   -403.98153 
  538500   0.10040991    7.1651174    934652.15    934659.38   -406.07569 
  539000   0.10081379    7.1661214    937203.41    937210.64    -404.3593 
  539500   0.10037685    7.1668663    939770.68    939777.92   -406.93835 
  540000   0.10025143    7.1669739    941515.97     941523.2   -406.64296 
  540500   0.10036672    7.1680121    941515.98    941523.21   -402.63663 
  541000   0.10045742    7.1693381    942956.17    942963.41   -405.84891 
  541500   0.10019545     7.168007    944524.14    944531.38   -405.68904 
  542000   0.10011942    7.1682144    944398.94    944406.17   -402.77445 
  542500  0.099962894    7.1693365    945504.94    945512.18   -403.43654 
  543000   0.10026166    7.1678322     947192.1    947199.34   -403.22311 
  543500  0.099988268    7.1685518     947191.9    947199.13   -405.64442 
  544000    0.1001058    7.1683349    948837.23    948844.46   -404.21288 
  544500   0.10009331    7.1686906    950453.89    950461.13     -404.544 
  545000  0.099691021    7.1675294    952549.85    952557.08   -404.22102 
  545500  0.099717544    7.1673871    955481.49    955488.72   -402.57862 
  546000   0.10009294     7.168376    957247.24    957254.48   -406.68261 
  546500   0.09968842    7.1686632    957247.07    957254.31   -403.91123 
  547000   0.10066134    7.1676018    957655.35    957662.58   -404.15275 
  547500   0.10020119     7.168966    956949.95    956957.19   -403.11406 
  548000   0.10038677    7.1676633     957795.8    957803.03   -406.41172 
  548500   0.10026129    7.1692672    957594.73    957601.97   -407.26041 
  549000   0.10021628     7.168694    956369.37    956376.61   -405.48607 
  549500  0.099965161    7.1724039    955029.92    955037.16    -405.6661 
  550000   0.10055612    7.1693497    955893.91    955901.14   -405.75262 
  550500   0.10022357    7.1687897    955893.89    955901.12   -405.22955 
  551000   0.10032887    7.1689651    954182.08    954189.32   -403.74753 
  551500   0.10014318    7.1710397    952420.66    952427.89   -404.81675 
  552000   0.09988845    7.1693379     952912.7    952919.93   -407.29547 
  552500   0.10036833    7.1696089     952052.5    952059.73   -405.06815 
  553000   0.10047424    7.1715542    951342.58    951349.82   -406.27274 
  553500   0.10040956    7.1713505    949378.79    949386.02   -404.80185 
  554000   0.10024548    7.1702821    948197.46     948204.7   -402.83624 
  554500   0.10013146     7.170254    948197.48    948204.72   -402.76638 
  555000   0.10000597    7.1712581    947715.85    947723.08   -405.23765 
  555500   0.10057048     7.173734    946044.51    946051.75   -404.06235 
  556000  0.099695135    7.1725213    945708.51    945715.75   -406.23701 
  556500   0.10072135    7.1734068    943640.66     943647.9   -403.46575 
  557000   0.10066284    7.1733841    943436.13    943443.37   -405.00218 
  557500   0.10020253    7.1739572    943436.08    943443.33   -403.73016 
  558000   0.10006838    7.1747534    942896.33    942903.57   -403.90403 
  558500   0.10060659    7.1727646    941610.14    941617.38   -402.93578 
  559000   0.10033779    7.1728426    940605.79    940613.03   -405.75635 
  559500   0.10020361    7.1721949    939444.58    939451.82   -404.72149 
  560000   0.10041451    7.1722543    936994.58    937001.82   -404.43112 
  560500   0.10030803    7.1735598    936042.52    936049.76   -405.09513 
  561000   0.10012168    7.1722953    934964.59    934971.83   -405.15092 
  561500   0.10038637    7.1718598    934368.15    934375.38   -406.30555 
  562000   0.10054284    7.1725438    934368.19    934375.43   -402.24903 
  562500   0.10024333    7.1733598    931151.01    931158.25   -404.58525 
  563000  0.099735511    7.1735391    929225.25    929232.49    -404.2209 
  563500   0.10019371    7.1750578    927654.98    927662.22   -405.10174 
  564000   0.10033976    7.1758114    926268.73    926275.98   -402.00204 
  564500   0.10032252    7.1766797    926537.29    926544.54   -406.08563 
  565000    0.1002678    7.1770568    926041.02    926048.27   -402.79445 
  565500   0.10009398    7.1766759    926040.97    926048.22   -405.27475 
  566000   0.10056711     7.177678     923707.9    923715.15   -404.81158 
  566500   0.10035139    7.1806187    921217.52    921224.77    -404.5814 
  567000   0.10059684    7.1787562    920148.08    920155.33   -405.20972 
  567500  0.099925932    7.1786868    920093.35    920100.59   -405.22118 
  568000   0.10027705    7.1805884    919845.76    919853.01   -404.21415 
  568500   0.10062709    7.1809464    919302.77    919310.02   -405.01056 
  569000     0.100238    7.1821497    918448.67    918455.92   -403.72944 
  569500   0.10034398    7.1814157     918419.4    918426.65   -406.15499 
  570000   0.10063799     7.180293    916847.56    916854.81   -402.97931 
  570500   0.10014708     7.179959    914647.58    914654.82   -405.19358 
  571000   0.10020749    7.1805845     914647.5    914654.75   -403.13797 
  571500  0.099952581    7.1811342    914996.77    915004.02   -402.16848 
  572000   0.10033208    7.1804937    914425.94    914433.19   -405.30714 
  572500   0.10011374    7.1801077    913947.87    913955.11   -405.53582 
  573000   0.10042779    7.1810512    915481.24    915488.49   -404.69869 
  573500   0.10038436    7.1795364    915821.33    915828.58   -403.77458 
  574000   0.10034747    7.1825172    917017.34    917024.59   -405.49944 
  574500   0.10063707    7.1827858    917017.23    917024.48   -403.82392 
  575000     0.100201    7.1840886    917434.46    917441.71   -403.08245 
  575500   0.10000073    7.1837155    918340.01    918347.26   -404.45927 
  576000   0.10049948    7.1842962    918150.88    918158.14   -404.61727 
  576500   0.10027677     7.183823       918491    918498.25   -404.46272 
  577000   0.10004807    7.1848653    918605.32    918612.57    -403.2539 
  577500   0.10043916    7.1853054    919760.21    919767.46   -405.12313 
  578000   0.10007146     7.186153    919760.33    919767.58   -404.35443 
  578500   0.10030038    7.1859889    920005.28    920012.53   -404.72314 
  579000   0.10055713    7.1865183    922801.67    922808.93   -405.45916 
  579500    0.0999885    7.1876727    924138.97    924146.22   -404.06301 
  580000   0.10028294    7.1875614    926470.48    926477.73    -403.6357 
  580500  0.099815281    7.1869679    928859.13    928866.38   -402.76143 
  581000   0.10042171    7.1867293    928859.15    928866.41   -405.62421 
  581500   0.10032528    7.1874846    931198.77    931206.03    -404.8506 
  582000   0.10021232    7.1880003    933070.75       933078   -404.11238 
  582500   0.10016208    7.1910528    936152.08    936159.33    -405.1499 
  583000   0.10016428    7.1915484    936477.64     936484.9   -404.74586 
  583500   0.10018541    7.1914422    939251.22    939258.48   -403.44038 
  584000  0.099895021    7.1909583    941617.87    941625.12   -404.21843 
  584500   0.10029724    7.1924853    944885.34     944892.6   -405.77557 
  585000     0.100451    7.1922073     944885.3    944892.56   -405.16211 
  585500   0.09995698    7.1914843    946513.51    946520.77   -406.29703 
  586000   0.10058663    7.1916665    948267.79    948275.05   -403.20868 
  586500   0.10044218    7.1914454    949353.85    949361.11   -405.22808 
  587000  0.099846936    7.1913674    949703.95    949711.21   -404.14208 
  587500  0.099971458    7.1920414    950596.05    950603.31   -405.03431 
  588000   0.10055914    7.1925744    950656.16    950663.42   -405.92356 
  588500   0.10030229    7.1929056    949397.76    949405.02   -407.84639 
  589000    0.1005155    7.1928204    949253.16    949260.42   -405.50568 
  589500   0.10009829    7.1937978     950216.3    950223.56   -404.16438 
  590000   0.10033367    7.1917023    950216.37    950223.63   -406.39205 
  590500  0.099841201    7.1931622     951972.2    951979.46   -405.82719 
  591000   0.10063047    7.1916704    951370.55    951377.81    -405.0905 
  591500   0.10013318    7.1929542    952132.44     952139.7   -404.52744 
  592000   0.10008324    7.1918416    951684.51    951691.77   -404.28412 
  592500   0.10040383      7.19219    951654.86    951662.12   -405.11833 
  593000  0.099900648    7.1925684    950759.38    950766.64   -406.72148 
  593500  0.099696469    7.1927815    950598.96    950606.22   -404.86337 
  594000  0.099786893    7.1927012    951876.67    951883.93   -406.19475 
  594500   0.10045225     7.190731    951876.61    951883.87   -405.38116 
  595000   0.10040457     7.189498    952976.51    952983.77   -406.39713 
  595500   0.10048166    7.1898482     953091.6    953098.85   -404.42732 
  596000   0.10016965    7.1900912     953191.6    953198.86   -405.40207 
  596500  0.099976267    7.1917432    952116.16    952123.42   -403.08512 
  597000   0.10022868     7.190682    950695.57    950702.82   -404.13519 
  597500   0.10050904    7.1886509    950695.62    950702.88   -405.29366 
  598000   0.10010203    7.1899639    946874.69    946881.95   -404.98524 
  598500   0.10010015    7.1879616    942885.52    942892.77   -405.52718 
  599000   0.10003569    7.1888079    942885.78    942893.04    -403.3385 
  599500   0.10035116    7.1880692    940403.78    940411.03   -405.58836 
  600000   0.10043595    7.1869798     938582.8    938590.05   -402.38641 
  600500   0.10021206    7.1864305    938582.75       938590   -405.66504 
  601000   0.10074304    7.1857475    937564.87    937572.12   -402.69743 
  601500  0.099990031    7.1877455    936524.65     936531.9   -404.56946 
  602000   0.10033913    7.1881026    934348.61    934355.86   -404.70956 
  602500   0.09998894    7.1875625    934348.75    934356.01   -407.84303 
  603000    0.1000476    7.1878039    933468.85    933476.11   -406.84583 
  603500   0.10033784    7.1854287    932674.02    932681.27   -405.69894 
  604000   0.10027505    7.1853618    932828.04    932835.29   -406.12494 
  604500   0.10008046    7.1848747    933137.22    933144.47   -404.59624 
  605000   0.10022543    7.1834484    933502.93    933510.18   -403.08291 
  605500  0.099859368    7.1834724    934647.15     934654.4   -403.73298 
  606000   0.10050494    7.1815531     934647.3    934654.55   -404.39388 
  606500   0.10018063    7.1831392    936294.03    936301.28   -402.55305 
  607000  0.099964318    7.1816079    938047.71    938054.96   -403.13338 
  607500   0.10056733    7.1820931    938705.23    938712.48   -405.15333 
  608000   0.10017193    7.1799977    940668.77    940676.02   -404.90306 
  608500   0.09990791    7.1809887       940056    940063.25   -404.75959 
  609000   0.10051082    7.1799248    940496.76    940504.01   -403.20997 
  609500   0.10020634     7.179602    941290.13    941297.37     -404.705 
  610000   0.10036034    7.1784991    939838.87    939846.12   -405.06994 
  610500  0.099703646    7.1778581    940636.69    940643.94   -406.16506 
  611000   0.10023351    7.1760543    941301.26     941308.5   -407.34993 
  611500   0.10009365    7.1765742     941301.2    941308.44   -404.17984 
  612000   0.10016436    7.1756124    942570.85     942578.1   -403.19036 
  612500   0.10009448    7.1761538    941647.66     941654.9   -404.31156 
  613000   0.10027195    7.1779005    944322.94    944330.18   -405.76851 
  613500   0.10008582    7.1778901     947488.4    947495.64   -406.59001 
  614000  0.099997764    7.1785429    948451.81    948459.05   -403.02463 
  614500   0.10028997    7.1776308    948451.85     948459.1   -405.80805 
  615000   0.10067818    7.1765688    951142.96     951150.2   -404.69413 
  615500   0.10042823    7.1768337    953821.15     953828.4   -403.82494 
  616000   0.10045221    7.1741298     957706.6    957713.84   -404.92934 
  616500  0.099909556    7.1742318    959270.02    959277.27   -402.55689 
  617000   0.10026364    7.1741445       959270    959277.24   -404.61174 
  617500   0.10045277    7.1738738    960997.07    961004.31   -403.43159 
  618000   0.10043941    7.1736093    961541.58    961548.82   -402.65698 
  618500   0.10026186    7.1727507    962511.69    962518.93   -404.97787 
  619000   0.10068919    7.1710747    964471.82    964479.06   -403.86191 
  619500   0.10027525    7.1695068    966575.58    966582.81   -405.89144 
  620000   0.09993695    7.1703395    966575.59    966582.83   -402.45572 
  620500    0.1004229    7.1693814    969789.09    969796.33   -405.08665 
  621000   0.10016945      7.16861    971053.89    971061.12   -403.56584 
  621500   0.10025327     7.166755     971053.9    971061.14   -403.73098 
  622000   0.10019036     7.168112     974400.6    974407.83   -402.97303 
  622500   0.10083016    7.1670217    976533.07     976540.3   -403.50783 
  623000   0.10044601    7.1691642    978465.77    978473.01   -405.59112 
  623500   0.10013931    7.1687864    980104.04    980111.28   -406.31763 
  624000   0.10004111    7.1691516    982417.33    982424.56   -406.89887 
  624500   0.10033818    7.1673346    984113.73    984120.97   -405.26197 
  625000   0.10029046      7.16729    984113.83    984121.06   -404.31636 
  625500   0.10027226    7.1666996    983257.55    983264.78   -404.46394 
  626000   0.10049424    7.1663845    983537.32    983544.55   -406.51855 
  626500   0.10031811    7.1654353    985369.12    985376.35   -406.34266 
  627000    0.1004392    7.1668519     986467.6    986474.83   -405.48192 
  627500   0.10006573    7.1663303    987748.55    987755.78   -404.53052 
  628000   0.10021197    7.1652158    987538.91    987546.14   -403.01928 
  628500   0.10020616     7.167967    987538.94    987546.18   -402.77259 
  629000  0.099984774    7.1677988    989377.46     989384.7   -404.46078 
  629500   0.10055707    7.1661347    990382.66     990389.9   -404.03804 
  630000   0.10059815    7.1679757    991918.86     991926.1   -404.81345 
  630500   0.10057303    7.1673737     992064.3    992071.53   -404.72058 
  631000    0.1003875    7.1662647    991117.71    991124.95   -404.80595 
  631500  0.099960004    7.1654728    990048.99    990056.22   -404.62321 
  632000   0.10023056    7.1674204    990048.78    990056.02   -404.81522 
  632500   0.10028719    7.1666987    988985.23    988992.46   -406.77246 
  633000    0.1003697    7.1675154    989468.34    989475.57   -404.01843 
  633500   0.10038914    7.1656562    989344.36     989351.6   -405.90653 
  634000    0.1001871     7.165651    989344.31    989351.54   -404.87982 
  634500   0.10025077    7.1639513    989710.21    989717.44   -405.52493 
  635000   0.10037428    7.1651875    987615.33    987622.57   -406.67295 
  635500   0.10041313    7.1647468    986994.48    987001.71   -403.45769 
  636000   0.10034621    7.1637641    985203.31    985210.54   -401.79424 
  636500  0.099947995    7.1650109    982125.68    982132.91   -404.09362 
  637000   0.10026221    7.1654861    978646.74    978653.97   -403.88117 
  637500   0.10020289     7.165236    978646.94    978654.17   -405.03316 
  638000   0.10014921    7.1658474    976689.92    976697.15   -404.82544 
  638500   0.10019417    7.1665088    974418.08    974425.31    -404.9077 
  639000   0.10060676    7.1663225    973494.39    973501.62   -404.25251 
  639500   0.10010141    7.1662731    971925.19    971932.42   -405.29796 
  640000   0.10016164    7.1645677    971180.17     971187.4    -404.1947 
  640500   0.10003934    7.1633938    968682.09    968689.32   -404.56641 
  641000  0.099841869     7.163867     968682.1    968689.33    -405.2027 
  641500   0.10025166    7.1634899    966764.42    966771.65   -405.67351 
  642000  0.099940055    7.1644693    964458.98    964466.21   -405.00701 
  642500   0.10042702    7.1649687    962657.71    962664.94   -405.44235 
  643000   0.10032644    7.1648038    959898.82    959906.05   -405.14608 
  643500   0.10007989    7.1651277     956656.6    956663.83   -405.22805 
  644000  0.099998854     7.164548    953796.34    953803.57   -403.63904 
  644500   0.10077874    7.1659299    953796.26    953803.49   -403.64082 
  645000   0.10047765    7.1652365    951921.66    951928.89   -405.27429 
  645500   0.10031186    7.1643433    949594.57     949601.8   -404.40682 
  646000   0.10059495    7.1645699    947693.68    947700.91   -405.88773 
  646500   0.10028054    7.1652668    946038.32    946045.55   -403.75465 
  647000  0.099982958    7.1645385    942713.93    942721.16    -405.8775 
  647500   0.10004963    7.1650921    940133.23    940140.46   -401.37505 
  648000   0.10052343    7.1644708    937456.15    937463.38   -403.91906 
  648500   0.10034175    7.1654532    937456.06    937463.29   -403.83178 
  649000  0.099966201    7.1653788    935646.17     935653.4   -405.04742 
  649500   0.10051651    7.1640367    932888.96    932896.19    -406.3944 
  650000   0.10040315    7.1651393    931655.46    931662.69   -404.77615 
  650500   0.10061528    7.1646967    931655.42    931662.65   -404.19641 
  651000   0.10050716    7.1643569    929821.88    929829.11   -404.38536 
  651500   0.10022123    7.1628843    930414.29    930421.52   -404.12706 
  652000  0.099905249     7.164011    930087.53    930094.76   -403.79942 
  652500   0.10039007    7.1625979     928984.1    928991.33   -402.17481 
  653000   0.10061482    7.1639983    927986.35    927993.58   -404.41138 
  653500   0.10031666    7.1623265    927986.43    927993.66   -406.91191 
  654000   0.10017003    7.1608696       927747    927754.22   -405.32365 
  654500   0.10052027    7.1646075    926760.12    926767.35   -403.88247 
  655000   0.10031465    7.1623709    926632.05    926639.28   -406.93216 
  655500   0.10015509    7.1608566    924844.86    924852.09   -404.50799 
  656000   0.10029559    7.1604966    924763.83    924771.05   -405.00937 
  656500   0.10049574    7.1594996    924021.47     924028.7   -402.37588 
  657000   0.10024586    7.1603777    923144.34    923151.57   -403.31214 
  657500   0.10031173    7.1603068    920975.46    920982.69   -404.53076 
  658000   0.10052148    7.1598965    920742.37     920749.6   -403.14008 
  658500   0.10014061    7.1601213    921676.93    921684.15   -404.56859 
  659000   0.10008523     7.160292     922915.7    922922.93    -404.4668 
  659500   0.10030662    7.1573115    923281.29    923288.52   -402.69226 
  660000   0.10030954    7.1580685    923281.37     923288.6   -403.31249 
  660500    0.1004305    7.1582906    925795.99    925803.22   -402.75751 
  661000   0.10053851    7.1590381     926434.7    926441.93   -404.44313 
  661500   0.10047726    7.1596447    928505.93    928513.16   -403.02147 
  662000   0.10026191    7.1595085    930315.51    930322.73   -407.40126 
  662500  0.099803511    7.1598195    931049.87     931057.1   -403.83855 
  663000   0.10044773    7.1592623    933658.94    933666.17   -403.08878 
  663500   0.10039444    7.1582063    933658.86    933666.08   -403.77062 
  664000   0.10028244    7.1581083    933653.68     933660.9   -404.84292 
  664500    0.1002011    7.1592084    935876.03    935883.26   -403.03996 
  665000   0.10021658    7.1589358    938587.07     938594.3    -405.2164 
  665500   0.10031555    7.1609623    942267.42    942274.65   -405.34664 
  666000   0.10015451    7.1621351    944544.12    944551.35   -404.02179 
  666500   0.10015649    7.1599783    946723.15    946730.37   -407.21287 
  667000   0.10030228    7.1611507    948763.24    948770.46   -404.90718 
  667500   0.10026278    7.1608245    948763.31    948770.54   -402.99123 
  668000  0.099891445    7.1595104    951296.54    951303.77   -405.34423 
  668500   0.10017975    7.1622334    953203.03    953210.25    -402.4275 
  669000  0.099936011    7.1615735    952431.46    952438.69   -405.77341 
  669500   0.10011336    7.1623251    954436.17     954443.4   -403.00849 
  670000   0.10009825    7.1628607    955640.88    955648.11   -405.36826 
  670500   0.10010647    7.1620987    957361.86    957369.09   -403.83651 
  671000   0.10047261    7.1611399    958891.83    958899.06   -404.07151 
  671500   0.10072542    7.1615701    958891.72    958898.95   -403.13414 
  672000   0.10005637    7.1622575    958750.68    958757.91   -402.62889 
  672500  0.099815475    7.1639294    958389.74    958396.97   -404.68356 
  673000   0.10068341    7.1641399    958389.93    958397.17   -402.72844 
  673500  0.099945519    7.1656675    957221.77       957229   -403.30606 
  674000   0.10017595    7.1633414    956761.07     956768.3   -401.50107 
  674500  0.099963368    7.1623353    954786.94    954794.17   -404.48985 
  675000   0.10031843    7.1615728     954896.9    954904.13   -403.92606 
  675500   0.10011343    7.1609283    952771.42    952778.65   -404.39808 
  676000    0.1003981    7.1620181     952297.1    952304.33   -405.45898 
  676500   0.10010178    7.1622249    950893.45    950900.67   -405.95473 
  677000   0.10012147    7.1620034    950893.32    950900.55    -404.3724 
  677500   0.10045132    7.1616989    948196.25    948203.48   -406.80931 
  678000   0.10011822    7.1594482    945961.25    945968.48   -404.68263 
  678500   0.10063142    7.1606871     945077.9    945085.13   -406.69704 
  679000   0.10031094    7.1608392    943848.17     943855.4   -405.49793 
  679500   0.10009984    7.1597156    944614.81    944622.04   -403.71944 
  680000   0.10018806    7.1609066    942959.58    942966.81   -404.86736 
  680500  0.099879338    7.1603022    941402.08     941409.3   -405.61955 
  681000   0.10037108    7.1603764    941402.23    941409.46   -404.54517 
  681500   0.10024006    7.1605976    941353.05    941360.28   -403.71969 
  682000   0.10045925    7.1597368    939182.64    939189.87   -403.46136 
  682500  0.099975581    7.1578711    936220.46    936227.68   -406.69074 
  683000   0.10014664    7.1586262    936220.42    936227.65   -402.82382 
  683500   0.10020339     7.158597    934771.48    934778.71   -407.96952 
  684000   0.10011116     7.157662    930628.65    930635.87   -407.68893 
  684500    0.1000419    7.1593089    928019.38    928026.61   -401.69826 
  685000   0.10042832    7.1585979    926275.59    926282.82   -403.49036 
  685500   0.10025683    7.1589193    924765.63    924772.85   -404.31325 
  686000   0.10029714    7.1591268    922845.44    922852.67   -405.74253 
  686500   0.10021829    7.1613483    921273.56    921280.79   -403.62839 
  687000  0.099986132    7.1591648    921273.59    921280.82   -405.89187 
  687500   0.10025714     7.157598    919689.22    919696.45   -405.19515 
  688000  0.099999333    7.1562701     918996.3    919003.53   -404.00169 
  688500   0.10048859      7.15415    918033.03    918040.26   -406.59407 
  689000   0.10034057    7.1560889     916095.8    916103.02   -404.21681 
  689500   0.10007958    7.1562521     914919.5    914926.72   -403.06413 
  690000   0.10008748    7.1559209    912317.52    912324.75   -405.33304 
  690500   0.10064353    7.1550704    910961.88     910969.1    -406.5398 
  691000    0.1003955    7.1555322    910048.14    910055.36   -409.17073 
  691500   0.10019252    7.1542833     910048.2    910055.42   -404.17921 
  692000   0.10022517    7.1552142    907967.61    907974.84   -405.77094 
  692500   0.10059192    7.1538306    906961.59    906968.81   -402.92398 
  693000  0.099946219    7.1533215    905858.54    905865.76   -404.47203 
  693500   0.10067541    7.1540576     905214.4    905221.62   -406.21127 
  694000   0.10009969    7.1533691    904708.27    904715.49     -406.586 
  694500   0.10032268    7.1535177    904708.24    904715.46   -406.09642 
  695000   0.10022288    7.1536151     904453.9    904461.12   -401.88239 
  695500   0.10025898    7.1534344    904762.15    904769.37   -405.21594 
  696000  0.099962296    7.1533671    903854.34    903861.56   -402.74918 
  696500  0.099974625    7.1515777    904947.43    904954.64   -405.98157 
  697000   0.10043671    7.1499019    905725.62    905732.83   -405.65531 
  697500   0.10006552    7.1511259    905152.26    905159.47   -404.06931 
  698000  0.099977714    7.1486279    904982.08    904989.29   -408.25486 
  698500   0.10040581    7.1486328    905895.87    905903.08   -405.26174 
  699000   0.10069371    7.1482193    905920.45    905927.66   -402.68483 
  699500   0.10038491    7.1485898    905659.83    905667.05   -406.68736 
  700000    0.1002241    7.1482043    907890.81    907898.02    -405.3214 
  700500   0.10013959    7.1459492    908473.96    908481.17   -405.58333 
  701000   0.10040805    7.1452416    909656.88    909664.09   -406.78026 
  701500   0.10058078    7.1475562    911547.64    911554.85   -407.45445 
  702000  0.099946421    7.1440748    914638.67    914645.88   -404.54022 
  702500  0.099983094    7.1431733    916145.19     916152.4    -402.3692 
  703000   0.10051203    7.1434221    918880.08    918887.29   -404.48845 
  703500   0.10042376    7.1453186    921478.81    921486.03   -406.05741 
  704000   0.10051184    7.1447124    926460.13    926467.35   -405.28108 
  704500   0.10005614    7.1461444    926460.13    926467.35   -405.97808 
  705000   0.10023916    7.1451186    929442.14    929449.35   -403.42907 
  705500   0.10008878     7.145278    931334.23    931341.44   -403.44648 
  706000   0.10042926    7.1440072    934042.94    934050.16   -406.10474 
  706500   0.10050588    7.1426145    936037.21    936044.42    -405.6365 
  707000   0.10014019    7.1444189    939159.45    939166.66   -402.69047 
  707500   0.10026186    7.1447242    939284.34    939291.55   -404.24342 
  708000   0.10028767    7.1445196    939851.93    939859.14   -404.92072 
  708500   0.10035697    7.1437897    940828.42    940835.63   -404.63024 
  709000   0.10024159     7.143814    941464.85    941472.06   -406.17557 
  709500   0.10053902    7.1450535    941464.84    941472.05   -406.27126 
  710000  0.099955541     7.144434    941997.29     942004.5   -406.66788 
  710500   0.10014693    7.1453757    941872.29     941879.5   -403.87746 
  711000   0.10031917    7.1449815    942654.67    942661.88   -407.43569 
  711500   0.10003843    7.1438387    944412.68    944419.89   -406.33801 
  712000   0.10027415    7.1452323    945770.58    945777.79   -406.06231 
  712500   0.10037337    7.1458441    945770.67    945777.88   -404.42416 
  713000   0.10012969    7.1453427    947865.78    947872.99   -404.50236 
  713500  0.099714383    7.1463115    949054.47    949061.68     -403.623 
  714000   0.10046449    7.1461604    949412.83    949420.04   -405.88168 
  714500   0.10037088     7.146123    949431.93    949439.14   -405.62092 
  715000   0.10029515    7.1468735    949148.81    949156.02   -406.18099 
  715500  0.099901521    7.1466849    950613.43    950620.64   -400.62442 
  716000   0.10042253    7.1469285     950613.5    950620.72   -406.36779 
  716500   0.10014401    7.1458214     951033.3    951040.51   -405.86582 
  717000   0.10015358    7.1464006    950652.97    950660.18   -404.58219 
  717500   0.10046229    7.1457615     953050.3    953057.51   -404.14241 
  718000     0.100277    7.1462948    955009.17    955016.38   -405.67858 
  718500   0.10014197    7.1454759    955893.65    955900.87   -407.05831 
  719000   0.10050137    7.1463004    955893.63    955900.85    -404.2522 
  719500   0.10034623    7.1480425    956761.63    956768.84   -403.05348 
  720000   0.10021991    7.1482308    958528.56    958535.77   -406.11811 
  720500  0.099999991    7.1484644     960212.1    960219.32   -403.17759 
  721000   0.10011083    7.1469323    960819.67    960826.89   -405.83168 
  721500  0.099857949    7.1450401    962389.94    962397.15   -405.89947 
  722000   0.10028493     7.145217    963697.96    963705.17   -402.97723 
  722500  0.099873108    7.1443991    964170.55    964177.76   -405.09057 
  723000   0.10037767     7.145397    964791.67    964798.88   -406.30579 
  723500   0.10035761    7.1442874    964798.56    964805.77   -405.28407 
  724000     0.100557    7.1452145    964864.14    964871.35    -402.9754 
  724500    0.1002894    7.1455653    963773.25    963780.46   -406.18907 
  725000    0.1000622    7.1449983    963773.17    963780.38   -402.59332 
  725500   0.10045766    7.1453711    963480.61    963487.83   -404.69679 
  726000   0.10054658    7.1456983    963697.48    963704.69   -402.93119 
  726500  0.099802521    7.1435892    963352.72    963359.93   -405.38498 
  727000   0.10032581    7.1451844    962084.32    962091.53   -405.86347 
  727500   0.10018153    7.1446854    962955.01    962962.22   -402.34008 
  728000   0.10063256    7.1456469    961648.67    961655.89   -405.47776 
  728500   0.10019918    7.1444339    961648.79       961656   -406.64205 
  729000   0.10065015    7.1430374    961740.25    961747.46    -403.8121 
  729500   0.10056613    7.1444945    961249.91    961257.12   -405.50366 
  730000   0.10019445    7.1467284    960944.72    960951.93   -406.55391 
  730500   0.10007041    7.1465962    961032.88    961040.09    -402.9152 
  731000   0.10012786     7.146294    960852.77    960859.99   -402.74672 
  731500   0.10043453    7.1466483    959417.71    959424.92   -404.16078 
  732000   0.10035532    7.1477801    957964.45    957971.67   -402.60407 
  732500  0.099969434    7.1472921    957905.63    957912.84   -401.08646 
  733000   0.10005652    7.1497259    955482.38     955489.6    -405.8635 
  733500   0.10061275    7.1480239    952841.06    952848.28   -404.90904 
  734000   0.10033269    7.1460282    949722.87    949730.09   -405.29721 
  734500   0.10056582    7.1475471    948544.85    948552.06   -405.07254 
  735000    0.1002341    7.1478224    945981.77    945988.98   -403.34665 
  735500   0.10002803    7.1472249    945981.82    945989.03   -404.90743 
  736000   0.10083654    7.1467443    944223.28     944230.5   -402.51461 
  736500   0.10046827    7.1475714    942255.82    942263.03   -403.77977 
  737000   0.10019863    7.1472554    938935.45    938942.67   -403.68195 
  737500   0.10001423    7.1475601    936543.15    936550.36   -401.31913 
  738000   0.10039656    7.1483364    936543.16    936550.38   -404.91563 
  738500   0.10030898    7.1479452    935340.23    935347.45   -405.26657 
  739000   0.10050783      7.14919    933417.19    933424.41   -407.52317 
  739500   0.10011576    7.1503159    932012.82    932020.04   -407.12044 
  740000   0.10030416    7.1516277    932012.87    932020.09   -404.08172 
  740500   0.10014017    7.1516943    932147.19     932154.4   -402.74107 
  741000  0.099885747    7.1524382    932649.13    932656.35   -404.88038 
  741500    0.1004358    7.1565009    930673.14    930680.36   -404.71409 
  742000  0.099981703    7.1548525    930626.02    930633.24   -403.19568 
  742500   0.10015346    7.1566797    931104.96    931112.18      -405.79 
  743000   0.10057134    7.1582142    931714.99    931722.22    -402.4514 
  743500   0.10024861     7.159012    932603.17    932610.39   -404.76755 
  744000   0.10063105    7.1609967    933839.19    933846.42    -407.2005 
  744500  0.099860958    7.1596972    933554.63    933561.86   -404.44677 
  745000   0.10065785    7.1622097    933554.64    933561.87   -403.07622 
  745500   0.10040978    7.1624986    936915.67     936922.9   -405.90737 
  746000   0.10038434    7.1615245    936591.75    936598.98   -405.30867 
  746500  0.099899598    7.1643271    937268.56    937275.79   -406.92605 
  747000   0.10000006     7.164849    938316.22    938323.45   -405.59097 
  747500  0.099937949    7.1650152    938316.18    938323.41   -404.60907 
  748000     0.100474    7.1651181    937951.14    937958.38   -405.83152 
  748500   0.10036326    7.1667082     938586.1    938593.34   -404.60012 
  749000  0.099975151    7.1662891    938848.92    938856.15   -405.32566 
  749500    0.1006342    7.1674342    937697.92    937705.16   -404.44132 
  750000   0.10000855    7.1675784     937774.2    937781.43   -404.82873 
  750500   0.10024572    7.1676447    937774.22    937781.46    -403.4358 
  751000    0.1001712    7.1681407    937083.39    937090.62   -404.33595 
  751500    0.1002572    7.1690909    935912.62    935919.85   -404.20583 
  752000   0.10002086    7.1680022    935001.79    935009.02   -404.03415 
  752500   0.10018146    7.1701943    934115.59    934122.83    -404.1523 
  753000   0.10039152    7.1702783    934040.58    934047.82   -402.82035 
  753500   0.10026447    7.1719158    934040.58    934047.82   -408.33708 
  754000   0.10038135    7.1716669    934464.08    934471.32   -404.02931 
  754500   0.10032488    7.1708945    935310.62    935317.85   -400.85131 
  755000   0.10028089    7.1720516    935090.49    935097.73   -406.45382 
  755500   0.10040267    7.1735442    934656.69    934663.93   -404.57312 
  756000  0.099997539    7.1724664    932923.22    932930.45   -403.95507 
  756500   0.10020291      7.17441    932203.37    932210.61   -405.25816 
  757000   0.10036704    7.1750065     932203.4    932210.64   -405.72947 
  757500   0.10030948    7.1752431    931900.56     931907.8   -405.43364 
  758000   0.10036051    7.1751911    932616.48    932623.73    -400.6481 
  758500  0.099674816    7.1756486    932186.43    932193.67   -405.04697 
  759000   0.10036506     7.177254    931795.64    931802.89   -404.41313 
  759500  0.099881083    7.1781452    930806.12    930813.36   -405.74606 
  760000   0.10058499    7.1794597    930538.87    930546.12   -403.60463 
  760500   0.10006583    7.1798291     930538.9    930546.15   -404.66687 
  761000   0.10010604    7.1812182    929688.97    929696.22   -405.16314 
  761500   0.10022338    7.1835205    930588.84    930596.09   -404.90601 
  762000   0.10002842    7.1851632    929394.47    929401.72   -402.66638 
  762500    0.1004235    7.1870861    930780.18    930787.44   -402.85845 
  763000   0.10014731    7.1866537    929962.08    929969.33   -405.04911 
  763500    0.1001939    7.1878773    929961.99    929969.24   -405.54237 
  764000  0.099963346    7.1877764    929437.54    929444.79   -408.04051 
  764500   0.10042477    7.1897239    925610.28    925617.54   -402.41937 
  765000   0.10046326    7.1889136    924010.91    924018.17   -406.90953 
  765500   0.10060434    7.1904154     922933.5    922940.76    -405.6871 
  766000   0.10018346    7.1914567    921772.77    921780.03    -403.4142 
  766500    0.1003978    7.1900495     921834.2    921841.46   -402.90639 
  767000    0.1004137    7.1898557    919672.83    919680.08   -405.04415 
  767500   0.10005142    7.1892195    918994.23    919001.48   -405.63056 
  768000   0.10068014    7.1905445    918726.02    918733.28   -401.48124 
  768500  0.099704666    7.1904825    918060.25     918067.5   -403.60902 
  769000   0.10060318    7.1903483    918713.26    918720.51   -402.91963 
  769500   0.10037094     7.191249    918713.35     918720.6   -404.38015 
  770000  0.099969243    7.1913634    918404.89    918412.15   -405.08409 
  770500   0.10000882     7.191152    919000.39    919007.65   -403.26759 
  771000   0.10023749    7.1933119    920383.82    920391.08   -403.32995 
  771500   0.10012548    7.1936999    920999.36    921006.62   -405.54833 
  772000    0.1002596    7.1952692    921441.74       921449   -404.99774 
  772500   0.10005082    7.1959985    921441.76    921449.03   -403.48466 
  773000  0.099808543    7.1960773    921626.84     921634.1    -403.2153 
  773500   0.10059532    7.1953926    923419.44    923426.71   -402.32871 
  774000  0.099935888    7.1965236    925478.34     925485.6   -403.92828 
  774500   0.10009543    7.1952729    926633.15    926640.41   -406.93688 
  775000   0.09951636     7.195371     927926.9    927934.16   -400.36488 
  775500   0.10029432    7.1955589    929330.83    929338.09   -406.99401 
  776000  0.099940221    7.1976007     932639.6    932646.87   -404.68279 
  776500  0.099972122     7.199682    934561.54    934568.81    -405.3282 
  777000   0.10036082    7.1984699     934561.5    934568.77   -404.54125 
  777500   0.10073937    7.1962958    936161.01    936168.28   -406.40126 
  778000   0.09982333    7.1987162    938057.28    938064.54   -407.51028 
  778500  0.099952978    7.1994144    939314.02    939321.29   -401.89136 
  779000   0.10008372     7.199027    939314.01    939321.27   -402.54968 
  779500  0.099964481    7.2002122    939497.98    939505.25      -404.62 
  780000   0.09994466    7.1991702    940543.36    940550.63    -403.9227 
  780500   0.10017954    7.1998289    941978.67    941985.94   -402.26765 
  781000     0.100017    7.2008413    944481.37    944488.63   -405.31892 
  781500   0.10013428    7.2018914    946949.01    946956.28   -403.82207 
  782000   0.10026672    7.2016959    949098.52    949105.79   -405.12126 
  782500   0.10009168    7.2020869    949098.52    949105.79   -407.64272 
  783000  0.099793394    7.2005577     951014.3    951021.57   -408.00741 
  783500  0.099883571    7.2004247    951014.38    951021.65   -404.50978 
  784000   0.10009336    7.2019205    953338.24    953345.51    -405.8108 
  784500   0.10022289    7.1999507    953269.61    953276.88   -404.42658 
  785000  0.099774534    7.2011448    954049.99    954057.26   -404.23385 
  785500    0.1000541    7.2033464    954238.49    954245.76   -403.31851 
  786000     0.100336    7.2035623    954951.35    954958.62    -405.7776 
  786500   0.10026462    7.2005519    954867.28    954874.54   -403.60162 
  787000  0.099927039     7.200411    954663.36    954670.63   -403.40668 
  787500  0.099885806    7.2005115    954663.46    954670.73   -402.52774 
  788000   0.10003628    7.2036255    955803.01    955810.28   -402.77646 
  788500   0.10019971    7.2015406    955905.32    955912.59   -405.96254 
  789000  0.099867351     7.200888    955740.76    955748.03   -405.50088 
  789500   0.10045588    7.2000419     956606.6    956613.87    -403.8684 
  790000  0.099757275    7.2003452    957613.01    957620.28   -404.61082 
  790500   0.10019034    7.2014676    958882.64    958889.91   -404.29568 
  791000   0.10019146    7.1988108    957933.36    957940.63   -406.95623 
  791500   0.10020733    7.1980418    954656.86    954664.12    -406.1375 
  792000   0.10035579    7.1979006    954462.52    954469.79   -403.15457 
  792500   0.10013788    7.1988222    953232.73       953240   -404.05089 
  793000   0.10024211    7.1981976    954022.88    954030.15   -405.42125 
  793500   0.10037428    7.1977267    954022.97    954030.24   -406.82004 
  794000   0.10023136    7.1984279    954164.06    954171.33   -403.45649 
  794500   0.10019778    7.1956698    952709.01    952716.27    -404.1956 
  795000   0.10011359    7.1964268    950810.43    950817.69   -405.56527 
  795500   0.10000065     7.194838    948800.16    948807.42   -404.13989 
  796000  0.099976857    7.1937647    948082.64     948089.9   -404.78782 
  796500    0.1000261    7.1940967    946870.09    946877.35    -405.8614 
  797000   0.10050806    7.1946657     946201.4    946208.66   -403.62786 
  797500   0.10047693    7.1948999    945812.35    945819.62   -400.22759 
  798000   0.10046221    7.1944814     945812.5    945819.76   -406.65177 
  798500  0.099974022    7.1933932    945172.46    945179.72   -403.96735 
  799000   0.10032857    7.1934074    945113.98    945121.24   -405.36768 
  799500   0.10043225    7.1954426    941333.64     941340.9   -403.26999 
  800000   0.10040129    7.1931576    940677.92    940685.18   -404.85998 
  800500   0.10012355     7.194255    940677.81    940685.07   -404.26832 
  801000   0.10004245    7.1947906    940403.71    940410.97   -404.54357 
  801500  0.099826834    7.1967125    939789.44     939796.7   -404.84261 
  802000   0.10060638     7.195632    940773.07    940780.33   -405.72331 
  802500   0.10043234    7.1949281    941236.01    941243.27   -405.39989 
  803000   0.10013099    7.1945717    941492.35    941499.61   -404.56397 
  803500   0.10018356     7.194397    941370.17    941377.43   -407.71092 
  804000   0.10025717    7.1931183    940675.63    940682.89   -406.26942 
  804500  0.099908248    7.1917359    940914.79    940922.05   -405.72733 
  805000   0.10028984    7.1909502    939311.56    939318.82   -407.94152 
  805500   0.10041162    7.1903246    939311.55    939318.81   -404.91735 
  806000   0.10006287    7.1893736    937787.38    937794.64   -405.82987 
  806500   0.10033243    7.1901117    935731.32    935738.57   -405.05478 
  807000   0.10055775     7.189748    935136.83    935144.09   -403.87048 
  807500   0.10059219    7.1909811     934900.5    934907.75   -402.97766 
  808000   0.10023209    7.1906599    933081.48    933088.74   -403.95172 
  808500    0.1003787    7.1905252    932942.27    932949.53   -404.33646 
  809000   0.10020306    7.1905685    932032.43    932039.69   -404.71982 
  809500   0.10043366     7.188894    931362.23    931369.49   -404.31912 
  810000   0.10049209    7.1891912     930571.5    930578.76    -406.2731 
  810500   0.10007162    7.1888635    930571.44    930578.69   -405.18344 
  811000   0.10042001    7.1887487    929520.22    929527.48   -405.79567 
  811500   0.10016627    7.1891117    928409.05     928416.3   -404.93082 
  812000   0.10022477    7.1882344    928876.27    928883.53    -402.6919 
  812500    0.1003496    7.1891394    928876.18    928883.44   -403.98127 
  813000   0.10038036    7.1897528    928801.32    928808.57   -403.64791 
  813500   0.10086466    7.1910757    926730.98    926738.24   -402.39323 
  814000  0.099963956    7.1917611    925727.98    925735.24   -405.61052 
  814500   0.10054353    7.1910219    924788.48    924795.74   -404.11775 
  815000   0.10011002    7.1886357    924788.49    924795.75   -404.88205 
  815500   0.10027934    7.1893684    923502.71    923509.97   -404.48711 
  816000   0.10057878     7.187742    921741.29    921748.55   -404.65954 
  816500   0.10066186    7.1874534    920460.08    920467.33   -405.71921 
  817000   0.10029191    7.1861115     920769.9    920777.15   -404.26353 
  817500   0.10021258    7.1867277    921573.45     921580.7    -404.5432 
  818000   0.10067596    7.1874315    921573.46    921580.71   -403.76958 
  818500   0.10037698     7.186833    919795.17    919802.43   -404.87027 
  819000   0.10040378      7.18592    920515.84    920523.09   -404.64413 
  819500   0.10035222     7.187053    919282.57    919289.82   -403.26098 
  820000  0.099905016     7.186839    917597.48    917604.74   -405.80753 
  820500  0.099985406    7.1864096    916208.17    916215.42   -403.64936 
  821000   0.10039796    7.1869465    916208.12    916215.37   -402.83737 
  821500   0.10035756    7.1875152    915146.05    915153.31   -403.58404 
  822000    0.1006687    7.1885755    914853.48    914860.74   -404.77924 
  822500   0.10028346    7.1877978     914486.2    914493.46   -404.03703 
  823000   0.10039319    7.1879015    913833.32    913840.58   -401.87823 
  823500   0.10022307    7.1868354    913271.09    913278.34   -406.34872 
  824000   0.10030365    7.1877241    911801.58    911808.83   -404.44599 
  824500   0.10021023    7.1884418    911801.61    911808.86   -403.84061 
  825000  0.099955944    7.1887915    911759.43    911766.69   -405.41074 
  825500   0.10019568    7.1875959    912221.61    912228.86   -405.53561 
  826000    0.1002084    7.1886208    912175.82    912183.08   -407.46592 
  826500   0.09994047    7.1874449    912211.91    912219.16   -406.07731 
  827000  0.099951475    7.1889118    913163.77    913171.03   -404.53186 
  827500   0.10041258    7.1891059       913335    913342.26   -405.93777 
  828000   0.10034969    7.1888738    913335.09    913342.34   -405.21839 
  828500   0.10010673    7.1881694    914086.61    914093.86   -406.87279 
  829000   0.10004979    7.1894388    914281.68    914288.93   -403.99256 
  829500   0.10053421     7.189626    913667.22    913674.48   -405.38821 
  830000   0.10042417    7.1894738    913978.32    913985.58   -402.87337 
  830500    0.1004125    7.1896978    914328.05    914335.31   -407.28387 
  831000   0.10052485    7.1893994    914548.79    914556.05   -403.15365 
  831500   0.10020551    7.1918794    914548.87    914556.13   -405.18028 
  832000   0.10026102    7.1930432    915530.67    915537.93   -403.12908 
  832500   0.10031497    7.1920607    916332.15    916339.41   -401.97112 
  833000   0.10029144    7.1913317    917518.15    917525.41   -403.71268 
  833500   0.10041087    7.1914762     918866.6    918873.86   -405.08723 
  834000    0.1003968    7.1910496    920915.73    920922.99   -403.38355 
  834500   0.10016191      7.19102    923325.08    923332.33   -403.94159 
  835000   0.10050698    7.1919657    924885.86    924893.12   -406.61253 
  835500  0.099972877    7.1917935    927948.62    927955.88   -406.42719 
  836000  0.099965747    7.1907574    930137.86    930145.12   -407.37011 
  836500   0.10040598    7.1890716    930137.97    930145.23   -407.10399 
  837000    0.1002351    7.1891837    931020.53    931027.79    -401.9316 
  837500   0.10022688    7.1886478    933243.42    933250.68    -405.3997 
  838000  0.099993595    7.1902911    937284.71    937291.97   -406.68794 
  838500   0.10042704    7.1899245    937087.83    937095.09   -405.61022 
  839000   0.10034551    7.1901068    937087.94     937095.2   -405.67203 
  839500   0.10015035    7.1900806    938049.33    938056.58   -405.56924 
  840000  0.099952613     7.189165     938521.1    938528.36   -405.77448 
  840500  0.099727248    7.1899212    939250.08    939257.34    -405.4885 
  841000   0.10020232    7.1917482    939415.72    939422.98   -403.38809 
  841500   0.10025921    7.1882833    940890.63    940897.88   -406.53826 
  842000   0.10001276    7.1892415    940890.64    940897.89   -407.01198 
  842500   0.10020666      7.19036    940420.84    940428.09   -405.98151 
  843000  0.099850962    7.1906044    939987.12    939994.38   -405.14485 
  843500   0.10021038     7.191071    939534.71    939541.97    -407.2006 
  844000  0.099929112    7.1915255    939660.96    939668.22   -405.63434 
  844500   0.09986838    7.1919671    940388.94     940396.2   -402.76648 
  845000  0.099836457    7.1912887    940388.94     940396.2   -406.16063 
  845500   0.10017908    7.1894936    940742.26    940749.51    -403.5909 
  846000   0.10010307    7.1922437    941101.65    941108.91   -402.26452 
  846500   0.10031562    7.1921384    940626.56    940633.82   -402.37219 
  847000   0.10050172    7.1928869    940626.47    940633.73    -403.7882 
  847500  0.099994703    7.1929894    939702.37    939709.63   -405.11278 
  848000   0.10013693    7.1924996    939253.92    939261.18   -405.85686 
  848500  0.099843543    7.1938934    938248.43    938255.69   -403.62452 
  849000   0.10046208    7.1959616    937828.38    937835.64   -405.19793 
  849500   0.10044127    7.1938291    938337.85    938345.11   -406.18492 
  850000  0.099979325    7.1940899    937723.24     937730.5   -406.04794 
  850500   0.10020101     7.194071    937723.31    937730.57   -404.20125 
  851000   0.10009167    7.1941196    938665.88    938673.14   -403.74099 
  851500    0.1002517    7.1924494    938312.14     938319.4   -401.27536 
  852000  0.099905956    7.1925961    939093.68    939100.94    -403.6591 
  852500   0.10033609    7.1943906    939093.53    939100.79   -405.16363 
  853000   0.10035267    7.1953908    940828.46    940835.73   -403.75711 
  853500   0.10016697    7.1937555    940401.31    940408.57   -402.74397 
  854000  0.099764918    7.1936426    941576.11    941583.37   -404.41783 
  854500  0.099930758     7.194569    942255.93    942263.19   -404.63939 
  855000   0.10023043    7.1936004    942255.98    942263.24   -404.23947 
  855500   0.10049898    7.1916199     943778.8    943786.06   -403.50007 
  856000   0.10036893    7.1907512    944759.81    944767.06    -404.8128 
  856500  0.099906412    7.1904143    945683.37    945690.63   -404.60545 
  857000   0.10031047    7.1900026    946264.57    946271.83   -404.93732 
  857500   0.10043731    7.1899181    946264.54    946271.79      -407.52 
  858000   0.10005018    7.1916903    949384.06    949391.32   -405.16466 
  858500  0.099934673    7.1896762    949384.02    949391.28   -404.32624 
  859000   0.10006199    7.1883563    950162.81    950170.06   -405.57937 
  859500    0.1000754    7.1881405     950832.4    950839.65   -404.59646 
  860000   0.10045256    7.1888065    953237.34    953244.59   -404.74281 
  860500    0.1000021    7.1895063    953142.13    953149.39   -405.96197 
  861000  0.099934658     7.191008    953130.96    953138.22    -405.5042 
  861500   0.10000076    7.1903995    953624.72    953631.98   -403.30653 
  862000   0.10005141    7.1913009     953942.5    953949.76   -404.32201 
  862500   0.10030146    7.1899148    954908.13    954915.38   -406.48803 
  863000  0.099842626     7.189368    954295.56    954302.82   -406.94753 
  863500   0.10020152    7.1910059    954938.86    954946.12    -405.9474 
  864000   0.10021105    7.1894566    954938.79    954946.05   -404.48459 
  864500   0.10012429    7.1879363    954651.29    954658.54   -404.87478 
  865000   0.10017473    7.1866526    954392.54    954399.79   -403.08276 
  865500   0.10067976    7.1883154    954209.66    954216.91   -402.13603 
  866000   0.10000314    7.1872084    954761.88    954769.14   -404.52564 
  866500   0.10050072    7.1885562    954595.88    954603.13   -402.60144 
  867000   0.10034779    7.1881004    956050.77    956058.03   -406.22414 
  867500   0.10006014      7.18924    956050.73    956057.98   -404.75371 
  868000   0.10033216     7.190134    956450.48    956457.74   -405.29433 
  868500   0.10039827    7.1885198    955705.56    955712.82   -405.64642 
  869000    0.1006347    7.1888788    955076.22    955083.47   -403.20363 
  869500   0.10055169    7.1900448    953506.52    953513.78   -403.51489 
  870000   0.10009775    7.1897327    953535.81    953543.06   -408.06138 
  870500   0.10049679     7.189681    953450.85     953458.1   -401.23626 
  871000   0.10018452    7.1916408    952168.32    952175.58   -403.24675 
  871500  0.099937484    7.1914528    950533.55    950540.81   -402.99479 
  872000   0.10023953    7.1919179    949806.24     949813.5   -404.10596 
  872500   0.10010304    7.1923613    948536.17    948543.43   -403.51429 
  873000    0.1003014     7.192191     946785.6    946792.86   -406.53008 
  873500    0.1001685    7.1916617    947077.67    947084.93    -405.7474 
  874000   0.10044707    7.1901695    946604.68    946611.94   -405.58835 
  874500   0.10036664    7.1914902    945287.78    945295.04    -404.1014 
  875000   0.10008329    7.1918261    943080.22    943087.48   -406.28786 
  875500   0.10013514    7.1929406    943080.25    943087.51   -404.43705 
  876000   0.10036592    7.1934126    941204.77    941212.03   -403.60654 
  876500    0.1004359    7.1933452     939255.2    939262.46   -404.33181 
  877000   0.10044622     7.192831     937199.5    937206.76    -405.2759 
  877500   0.10020788    7.1900622     933926.4    933933.66   -406.79447 
  878000   0.10022665    7.1913704    931135.76    931143.02   -406.13711 
  878500   0.09989981    7.1925713    929967.67    929974.93   -406.36161 
  879000   0.10048411    7.1924568    927233.66    927240.92   -403.61246 
  879500    0.1001268     7.193791    924474.57    924481.83   -404.47624 
  880000   0.10031617    7.1935908    922684.87    922692.13   -404.83849 
  880500   0.10026963    7.1928718    922684.81    922692.07   -404.58626 
  881000   0.10015281    7.1923255    919050.64     919057.9   -405.05201 
  881500   0.10040822    7.1913269    915956.89    915964.15   -405.11526 
  882000    0.1004018    7.1920679    912740.55    912747.81   -406.94334 
  882500   0.10077165    7.1895043    909352.31    909359.57   -404.15314 
  883000   0.10059262     7.187873    908663.61    908670.86   -402.27612 
  883500   0.10016474    7.1892495    906654.59    906661.85   -405.15292 
  884000   0.10038267     7.188726    905945.29    905952.54   -403.85748 
  884500   0.10010047    7.1892325    904674.33    904681.59   -404.13963 
  885000   0.10032381    7.1895719    904245.42    904252.68   -404.42067 
  885500   0.10037932    7.1886738    904245.47    904252.72   -404.33703 
  886000   0.10005829    7.1884297    903578.28    903585.53   -407.35187 
  886500   0.10066494    7.1888147    902989.63    902996.89   -406.83878 
  887000   0.10050906    7.1877547    902352.65    902359.91   -408.60224 
  887500    0.1003612    7.1884476    902306.35    902313.61   -406.20755 
  888000    0.1002306     7.189434    900696.34     900703.6   -403.75448 
  888500   0.10053536    7.1888336    900696.42    900703.68    -405.1156 
  889000   0.10043111    7.1877229    900495.68    900502.94   -405.84058 
  889500   0.10017821    7.1877925    901546.47    901553.73   -402.62782 
  890000   0.10038396    7.1886376    903400.47    903407.72   -403.58215 
  890500   0.09995286    7.1875361    903400.39    903407.64   -402.12414 
  891000    0.1006746    7.1870603    907793.32    907800.57   -405.96458 
  891500   0.10028383    7.1870814    907793.31    907800.56   -407.46339 
  892000   0.10012861    7.1877029    913449.82    913457.07   -407.31545 
  892500   0.10037005    7.1853883    913449.82    913457.08   -402.90931 
  893000  0.099691264    7.1860744     917237.2    917244.45   -404.20211 
  893500   0.10040863    7.1853838    920980.78    920988.03   -405.34017 
  894000   0.10065756    7.1858081     925680.2    925687.46   -401.12381 
  894500  0.099573402    7.1875699    928633.03    928640.28   -403.97807 
  895000   0.10015857    7.1869631    932169.21    932176.46   -405.01383 
  895500   0.10050885     7.185769    938068.89    938076.14   -403.31101 
  896000   0.10033695    7.1861892    938068.98    938076.24   -405.21174 
  896500   0.10055883     7.185823    941678.83    941686.09   -407.06731 
  897000   0.10038108    7.1850108    947030.69    947037.95   -408.33416 
  897500  0.099918417    7.1860115     953080.1    953087.35    -405.6364 
  898000   0.10032374    7.1848199    957490.74    957497.99   -406.81237 
  898500    0.1001256    7.1872237    962971.34    962978.59   -405.72328 
  899000   0.10058712    7.1871252     965660.9    965668.15   -405.05021 
  899500    0.1002361    7.1875223    965660.92    965668.18   -403.79224 
  900000  0.099732448    7.1870443    972884.68    972891.93   -405.92319 
  900500   0.10013002    7.1858853    972884.69    972891.94   -404.10174 
  901000   0.10036794    7.1859488    977442.41    977449.66   -407.33567 
  901500   0.10011589    7.1867505    980252.95     980260.2   -405.77984 
  902000   0.10017967    7.1864091    982153.43    982160.68   -404.39686 
  902500   0.10042372    7.1871543    986897.98    986905.24   -408.02601 
  903000   0.10065408    7.1863247    989103.87    989111.12   -407.89937 
  903500   0.10032036     7.185753    989103.87    989111.12   -403.97544 
  904000  0.099754402    7.1873195    992246.45     992253.7    -404.6175 
  904500   0.10030502    7.1868915    994216.13    994223.38   -405.49451 
  905000   0.10033308    7.1854099    995307.83    995315.08   -404.85272 
  905500    0.1008027    7.1850695    994522.36    994529.62   -404.62902 
  906000   0.10053369     7.185806    994627.21    994634.46   -405.79335 
  906500   0.10031219    7.1864932     994627.3    994634.55   -405.08699 
  907000    0.1008067    7.1862713    992733.05    992740.31    -405.4109 
  907500   0.10028704    7.1861625    989640.34    989647.59   -405.10906 
  908000  0.099978009    7.1863607    987478.31    987485.56   -403.20055 
  908500   0.10051489    7.1859247    986114.27    986121.52   -403.81015 
  909000   0.10010375    7.1834322     985396.3    985403.55   -404.47056 
  909500   0.10043707    7.1833037    983369.68    983376.93   -401.45748 
  910000   0.10079786    7.1821689    981315.38    981322.63   -407.02908 
  910500   0.10016205     7.182397    980257.32    980264.57   -406.21582 
  911000   0.10070678    7.1831965    978544.56    978551.81   -406.29078 
  911500    0.1002425    7.1818813    975974.79    975982.04   -404.80738 
  912000   0.10035849    7.1803439    975974.72    975981.97   -404.38174 
  912500   0.10004461    7.1811033    970981.09    970988.34   -404.00512 
  913000   0.10065731    7.1816275    966096.84    966104.09   -404.18754 
  913500   0.10017951    7.1854743    966096.79    966104.04   -405.16138 
  914000   0.10029662    7.1853309    961661.42    961668.67    -403.1057 
  914500   0.10006203    7.1840735    956496.85     956504.1   -407.36611 
  915000   0.10015437    7.1846513    953049.18    953056.43   -404.05747 
  915500   0.10019348    7.1846668    952506.12    952513.38   -404.53333 
  916000   0.10083205    7.1836115    948956.85     948964.1   -406.92113 
  916500   0.10049578    7.1860917    945827.79    945835.04   -403.87722 
  917000   0.10038672    7.1861144    942212.78    942220.03   -402.34935 
  917500   0.10044485    7.1878683    942212.76    942220.01    -403.3418 
  918000   0.10017434    7.1882153    936795.64    936802.89   -402.24649 
  918500   0.09982744     7.189018    931833.05    931840.31   -406.91669 
  919000   0.10048617    7.1893875    928440.93    928448.19   -406.91791 
  919500   0.10023486    7.1883164    925597.33    925604.58   -407.55728 
  920000   0.10042733    7.1882972    923271.48    923278.73   -404.74664 
  920500    0.1005413    7.1894833     920048.3    920055.56   -403.86566 
  921000   0.10041996    7.1916219    916842.87    916850.13   -402.69332 
  921500   0.10056115    7.1899033    916842.85     916850.1   -405.95068 
  922000   0.10030844    7.1906312    912793.87    912801.12    -405.0858 
  922500   0.10017689    7.1921096    909975.02    909982.28    -403.0576 
  923000   0.10042163    7.1930614    908976.69    908983.95   -403.89467 
  923500   0.10014764    7.1937856    908137.94     908145.2   -402.37506 
  924000   0.10044642    7.1945693    908216.11    908223.37   -404.71112 
  924500   0.10066415    7.1949668    908216.09    908223.35   -405.66569 
  925000   0.10053492     7.196727     907687.6    907694.86   -406.39992 
  925500    0.1004958    7.1962476    907280.25    907287.51   -404.61636 
  926000  0.099688039      7.19594    908299.87    908307.14   -402.78997 
  926500   0.10009094    7.1969561    910188.51    910195.78   -405.42816 
  927000   0.10049135    7.1988744    910188.53     910195.8   -404.28813 
  927500  0.099852657    7.2010938    913516.41    913523.68   -407.08056 
  928000   0.10010862    7.2022591    915105.19    915112.46   -404.58947 
  928500   0.10034172    7.2021837    918875.61    918882.88   -404.81538 
  929000   0.10014622    7.2047428    921935.67    921942.94    -406.1599 
  929500   0.10032264     7.204057    921935.68    921942.95   -407.18648 
  930000   0.10063444    7.2046398    923651.72    923658.99   -403.59544 
  930500   0.10024264    7.2020022    925968.19    925975.46   -405.60396 
  931000   0.10000491    7.2008891    928201.62    928208.89   -405.24107 
  931500   0.10025421     7.202153    930580.59    930587.86   -405.98972 
  932000   0.10017981    7.2036991    931799.84    931807.11   -405.16468 
  932500   0.10042644    7.2036706     934211.1    934218.37   -405.50677 
  933000   0.10037755    7.2044968     937019.1    937026.37    -402.8195 
  933500   0.10035069    7.2052089    939703.13     939710.4   -403.90268 
  934000   0.10019811    7.2063597    939703.09    939710.36   -405.14782 
  934500   0.10075699    7.2079211    941724.39    941731.67   -404.37569 
  935000    0.1000835    7.2102051    943911.15    943918.43   -403.27798 
  935500   0.10007296    7.2099559    945454.87    945462.15   -406.66979 
  936000    0.1003864    7.2104583    946393.29    946400.57   -406.99536 
  936500   0.10074489    7.2109586    947663.72       947671   -403.22507 
  937000   0.10020288    7.2131147    949253.18    949260.46   -405.45781 
  937500   0.10050853    7.2141349    950580.12     950587.4   -404.76089 
  938000   0.10031421    7.2146602    949952.09    949959.37   -403.38266 
  938500   0.10007924    7.2156709    949951.95    949959.23   -403.17194 
  939000   0.10052055    7.2149373    950260.33    950267.61   -404.34571 
  939500   0.10029479    7.2169539     952032.8    952040.09   -404.40881 
  940000   0.10062452     7.216846    953494.25    953501.54    -402.9982 
  940500   0.10004218    7.2160755     953520.5    953527.78   -405.63579 
  941000   0.10059822    7.2160819    953520.53    953527.81   -403.98633 
  941500   0.10093201    7.2184215    954970.95    954978.24   -406.34456 
  942000    0.1003278    7.2184349    954887.84    954895.13    -405.0456 
  942500   0.10031411    7.2177927    954395.69    954402.98   -404.26835 
  943000   0.10010426    7.2169075    953728.43    953735.72   -404.14345 
  943500   0.10060414    7.2202213    953354.13    953361.42   -405.45912 
  944000   0.10010825    7.2217923    953353.99    953361.28   -404.95992 
  944500    0.1000374    7.2213457    952923.01     952930.3   -404.69624 
  945000   0.10004581    7.2216613    952735.17    952742.46   -408.69051 
  945500   0.10064255    7.2210071     951766.7    951773.99   -405.81954 
  946000   0.10021671    7.2212657     951766.6    951773.89   -407.69096 
  946500   0.10040485    7.2217223    949239.07    949246.36   -405.14171 
  947000     0.100282    7.2208064    948460.06    948467.35   -406.79217 
  947500   0.10039895     7.221566    946393.16    946400.45   -406.06744 
  948000  0.099982366     7.221008    943859.87    943867.16   -404.41651 
  948500  0.099972955    7.2205528    940322.08    940329.36   -403.73308 
  949000   0.10062816    7.2202589     937620.1    937627.39   -406.45012 
  949500   0.10050529    7.2211761    937620.11     937627.4   -403.14647 
  950000  0.099970505    7.2229726    932735.21     932742.5   -405.29904 
  950500    0.1001072     7.223704    931793.08    931800.37    -403.1261 
  951000   0.10041999    7.2238412    929391.25    929398.55   -401.42665 
  951500  0.099990918    7.2238094    927214.11     927221.4   -404.73062 
  952000   0.10063734    7.2245015    927213.98    927221.28   -402.87936 
  952500   0.10023808    7.2250664    923912.02    923919.31   -406.20494 
  953000   0.10040182    7.2248139    922439.09    922446.38   -405.40887 
  953500   0.10051351    7.2260719    920512.69    920519.99   -404.45171 
  954000   0.10042694    7.2277425    918119.72    918127.01   -406.10307 
  954500   0.10067014    7.2290959    918119.61    918126.91   -407.46334 
  955000   0.10061686     7.228696     917375.3     917382.6   -405.66509 
  955500   0.10027009    7.2292937    916944.64    916951.93   -405.28843 
  956000  0.099927501    7.2291484     916619.4     916626.7   -406.16773 
  956500   0.10049235    7.2285551    917501.72    917509.01   -403.93159 
  957000   0.10061521    7.2294407    916520.97    916528.27   -405.63961 
  957500    0.1002029    7.2295612    918118.57    918125.87   -405.37002 
  958000   0.10039655    7.2277323     917789.3    917796.59   -401.99374 
  958500  0.099786152    7.2259692       917569    917576.29   -403.12894 
  959000  0.099741194    7.2262046    917569.07    917576.36   -402.96818 
  959500   0.10034879    7.2258988    917164.48    917171.78   -406.10455 
  960000   0.10001254    7.2275023    915801.38    915808.67   -404.27073 
  960500   0.10047308    7.2273357    914133.66    914140.95   -404.54291 
  961000  0.099920291    7.2268121    913590.48    913597.77   -405.80068 
  961500   0.10010418     7.226272    913460.33    913467.62   -403.67002 
  962000   0.10013128    7.2261468    914072.26    914079.55   -404.07591 
  962500  0.099989508    7.2277318    914072.19    914079.49   -405.09671 
  963000   0.10036017    7.2274619     915196.6    915203.89   -405.15982 
  963500   0.10012966    7.2264656    918094.76    918102.05   -403.82789 
  964000   0.10059179    7.2271478    919327.63    919334.92   -403.12719 
  964500  0.099867401    7.2268432    920464.98    920472.28   -403.72663 
  965000   0.10066788    7.2268455    920037.43    920044.73    -403.1944 
  965500   0.10032249    7.2265308    922066.43    922073.73   -404.80287 
  966000   0.10036227     7.226253    922066.54    922073.83   -404.46246 
  966500  0.099904212    7.2267264       922883    922890.29   -405.73326 
  967000   0.10021719    7.2257178    924367.07    924374.36    -404.9824 
  967500  0.099881907    7.2239008    924996.42    925003.71   -403.07579 
  968000   0.09986724    7.2230582    925886.88    925894.17   -406.16532 
  968500   0.10033254    7.2228997    925740.17    925747.46   -405.03468 
  969000   0.10023765    7.2224749    926915.84    926923.13   -404.96026 
  969500   0.10012287    7.2228597    927366.94    927374.22   -405.35091 
  970000   0.10018434    7.2215278     929490.3    929497.59   -403.35434 
  970500   0.10052496    7.2244055    930698.63    930705.92   -403.58935 
  971000   0.10023072    7.2235856    931036.27    931043.56   -403.01437 
  971500   0.10031126     7.221709    934443.56    934450.85   -405.04673 
  972000  0.099858705    7.2234319    936296.13    936303.42   -403.89414 
  972500  0.099939156    7.2220093    938387.51     938394.8    -403.6327 
  973000   0.10034838    7.2220795    938421.26    938428.55   -404.28137 
  973500   0.10021541    7.2200284    941042.93    941050.22   -404.04089 
  974000   0.10004741    7.2203173    941042.85    941050.14   -401.98825 
  974500   0.10021976    7.2207563    940933.21     940940.5   -405.25425 
  975000   0.10012154    7.2183763    942647.31     942654.6   -405.03679 
  975500   0.10018466    7.2185276    943489.56    943496.85    -402.4031 
  976000   0.10042109    7.2168951    944600.73    944608.01   -405.93834 
  976500  0.099844397    7.2169189    946944.49    946951.78   -404.33586 
  977000   0.10027168    7.2151352    948891.29    948898.57   -406.26004 
  977500   0.10005535    7.2159419    948891.26    948898.54   -403.09068 
  978000   0.10005733    7.2152286     950215.8    950223.08   -405.25357 
  978500   0.10064357    7.2156377    952273.41    952280.69   -406.22526 
  979000   0.10055732    7.2171224    955207.02     955214.3   -404.04462 
  979500   0.10030954    7.2151178    957773.75    957781.03   -403.63862 
  980000    0.1002197    7.2161082    959929.72    959937.01   -405.10229 
  980500   0.10040039    7.2149172     959929.7    959936.98   -402.29687 
  981000   0.10023396    7.2152374    962134.61     962141.9   -404.16074 
  981500  0.099886364     7.215755    964161.02     964168.3   -404.66062 
  982000   0.10055348    7.2161194    967399.41    967406.69   -401.37528 
  982500   0.10043271    7.2152008    967399.32     967406.6   -405.84121 
  983000   0.10012926    7.2157002     969295.9    969303.18   -406.27071 
  983500   0.10001351    7.2137086    971430.69    971437.97   -405.44785 
  984000    0.0999917    7.2157678     972151.7    972158.98   -402.75796 
  984500   0.10010791    7.2163516    972972.16    972979.44   -403.31295 
  985000   0.10053312    7.2151418    973226.71    973233.99   -403.12905 
  985500   0.10046699    7.2131764    974753.02     974760.3   -404.84377 
  986000   0.10049865     7.214147    974753.04    974760.32   -404.78319 
  986500   0.10043902     7.214445    975904.43    975911.71   -404.55607 
  987000   0.10017756    7.2125501    975965.81    975973.09   -402.07801 
  987500   0.10025607    7.2129338    975965.72       975973   -401.96469 
  988000   0.10039452    7.2147373    976229.58    976236.86   -405.10554 
  988500  0.099891101    7.2140428    975661.42     975668.7   -404.24573 
  989000   0.10019254    7.2135484    974980.93    974988.21   -402.96368 
  989500   0.10021585    7.2115406    974836.07    974843.34   -405.02588 
  990000    0.1005789    7.2118829    974638.44    974645.72   -404.28278 
  990500    0.1005599    7.2111019    974108.25    974115.53   -403.79857 
  991000   0.10023622     7.212301    973268.62    973275.89   -402.38604 
  991500   0.10018028       7.2113    971598.54    971605.82   -405.66324 
  992000  0.099971045    7.2115914    971663.94    971671.22   -403.59989 
  992500  0.099682205    7.2119591    970531.87    970539.14   -402.74913 
  993000   0.10059035    7.2115639    969454.97    969462.25   -404.42032 
  993500   0.10000618    7.2116656     967928.1    967935.38   -404.77241 
  994000  0.099877782    7.2112702    964790.22     964797.5   -402.09673 
  994500   0.10051461    7.2116142    964790.36    964797.64   -405.87239 
  995000  0.099952807    7.2123572    964275.03    964282.31   -403.57656 
  995500   0.10022087    7.2142566    963162.04    963169.32   -407.28053 
  996000   0.10063876    7.2148126    960856.12     960863.4   -404.88369 
  996500   0.10016845    7.2154097    958982.64    958989.93   -403.92196 
  997000   0.09996006    7.2149305    957723.78    957731.07   -403.17459 
  997500   0.10012957    7.2140076    956388.69    956395.97   -403.83071 
  998000   0.10013735    7.2140809    954045.22     954052.5   -404.91061 
  998500   0.10040163    7.2143523    953113.83    953121.11   -405.64486 
  999000   0.10026844    7.2123323    951274.74    951282.02   -404.05376 
  999500   0.10037506     7.213099     948905.9    948913.18   -403.81276 
 1000000   0.10019338    7.2130111    948379.33    948386.61   -405.80678 
 1000500   0.10001238    7.2138321    948379.53    948386.81   -406.23958 
 1001000   0.10059939    7.2136363    946716.14    946723.42   -406.64683 
 1001500   0.10043565    7.2137878    945884.69    945891.97   -403.96535 
 1002000   0.10092058    7.2135127    943183.13    943190.41   -404.40934 
 1002500  0.099899866     7.213161    940712.83    940720.11   -406.91064 
 1003000   0.10020129     7.213965    939116.33    939123.61    -406.4402 
 1003500   0.10028705    7.2147635    939116.35    939123.63   -404.12199 
 1004000   0.10017602    7.2153186    937024.45    937031.73   -403.67551 
 1004500   0.10007168    7.2131569    934591.07    934598.35    -404.2087 
 1005000   0.10058223    7.2117952    932515.82     932523.1   -405.59928 
 1005500   0.10018545    7.2110878    931953.31    931960.59   -401.93613 
 1006000   0.10021477    7.2127667    931884.35    931891.63   -403.10468 
 1006500  0.099815855     7.212803    929523.96    929531.24   -406.08838 
 1007000   0.10008673    7.2124527    929916.19    929923.47   -404.99229 
 1007500    0.1002302    7.2129904    929916.19    929923.47   -406.27388 
 1008000   0.10030817    7.2126187    930170.42     930177.7   -404.82761 
 1008500   0.10037567    7.2117176    929291.26    929298.54   -406.74935 
 1009000  0.099631338    7.2112411    929291.21    929298.49   -405.36777 
 1009500   0.10056224    7.2113333    929244.54    929251.82   -403.67531 
 1010000    0.1001453    7.2103475    928903.62     928910.9   -405.74943 
 1010500   0.10008006    7.2103355    928542.15    928549.43    -406.1604 
 1011000   0.10078334    7.2104156    928004.75    928012.03   -405.84345 
 1011500   0.10020872    7.2111612    925816.94    925824.22    -405.0283 
 1012000  0.099858189    7.2101298    926887.21    926894.48   -404.10181 
 1012500  0.099917328    7.2115691    927179.86    927187.14   -407.89889 
 1013000   0.10004349    7.2117563    926744.53    926751.81   -401.28796 
 1013500  0.099672684    7.2114505    927710.33    927717.61   -405.08657 
 1014000   0.10085328    7.2118218    927829.67    927836.95   -407.62198 
 1014500   0.10028828    7.2113562    926154.24    926161.52   -404.62135 
 1015000   0.10016094    7.2118376    926154.32     926161.6   -403.72562 
 1015500   0.10007049    7.2117561    925292.46    925299.74   -405.37343 
 1016000   0.10005934    7.2120821    924172.53    924179.81   -404.08665 
 1016500   0.10018031    7.2117395    923986.95    923994.23   -403.75702 
 1017000   0.10040049    7.2118229    921900.45    921907.72   -403.78728 
 1017500   0.10000386    7.2115981    921255.19    921262.47   -405.44609 
 1018000   0.10069036    7.2104685    921255.03    921262.31   -406.06468 
 1018500   0.10020035    7.2082422    918670.56    918677.83   -404.81478 
 1019000  0.099982936    7.2079757    916111.23    916118.51   -403.08022 
 1019500   0.10011729    7.2079605    914209.69    914216.96   -405.61565 
 1020000   0.10068508     7.208415    913229.19    913236.46   -405.17384 
 1020500    0.1002365    7.2070877    911606.01    911613.29   -403.64686 
 1021000   0.10053141    7.2092735    910628.02     910635.3   -404.90276 
 1021500   0.10004161    7.2099053    910628.01    910635.28   -402.97065 
 1022000   0.10016231    7.2107316    908334.23    908341.51   -405.11854 
 1022500   0.10002972    7.2107093    909145.84    909153.12   -403.31773 
 1023000   0.10025947    7.2121836    909256.75    909264.03   -405.27797 
 1023500  0.099777135    7.2119721    910676.36    910683.64   -403.90442 
 1024000  0.099944268    7.2120421    910301.77    910309.05   -405.80392 
 1024500   0.10012516    7.2123599    910331.95    910339.23   -403.09219 
 1025000   0.10001895    7.2109825    910331.83    910339.11   -404.02493 
 1025500   0.10029704    7.2137375    912226.31    912233.59   -403.50185 
 1026000   0.10001131    7.2118693    913240.39    913247.67   -405.30681 
 1026500   0.10082793    7.2111562    914909.63    914916.91   -403.99515 
 1027000   0.10000464    7.2093735    916466.32     916473.6   -404.67276 
 1027500   0.10003329    7.2103727    920312.18    920319.46   -402.88413 
 1028000    0.1001277    7.2103571    921911.23     921918.5   -407.34361 
 1028500  0.099913229    7.2086375    921911.21    921918.49    -405.4418 
 1029000    0.1004525    7.2090918    923755.62     923762.9   -406.60626 
 1029500  0.099928382    7.2067962    925779.51    925786.79    -405.6374 
 1030000  0.099981348    7.2066244    929136.39    929143.66   -403.09383 
 1030500   0.10040195    7.2076772    930122.83    930130.11   -405.36503 
 1031000   0.10061225    7.2062787    930122.92     930130.2   -406.70026 
 1031500   0.10013583    7.2073726    932353.34    932360.61   -404.85272 
 1032000   0.10026063    7.2073322    935045.66    935052.93   -404.42347 
 1032500  0.099924923    7.2047619    937370.44    937377.71   -402.63114 
 1033000   0.10066757    7.2062524     939839.2    939846.48   -405.27037 
 1033500    0.1004794    7.2056315    942772.01    942779.28   -404.54247 
 1034000   0.10020555    7.2058782    944996.26    945003.53   -404.24383 
 1034500   0.10062364    7.2055531    944996.15    945003.43   -405.62452 
 1035000   0.10050394    7.2052661    947240.11    947247.39   -405.37031 
 1035500  0.099964738    7.2038848     949516.6    949523.87   -403.51979 
 1036000    0.1002051    7.2046748    952338.99    952346.26   -406.87942 
 1036500   0.10018706    7.2040932    955905.66    955912.93   -404.60504 
 1037000   0.10035145    7.2037014    959776.14    959783.41   -405.24662 
 1037500   0.10016591    7.2043019    962276.18    962283.45   -404.35124 
 1038000   0.10048285    7.2041025     962276.2    962283.47   -403.32231 
 1038500   0.10006481      7.20403    964227.52    964234.79   -404.31712 
 1039000   0.10012499     7.203554    966479.13     966486.4   -405.29399 
 1039500   0.10040495    7.2024206    968397.38    968404.65   -408.17376 
 1040000   0.10064829    7.2026571    968823.56    968830.83   -404.02475 
 1040500   0.10003729    7.2010674     969290.4    969297.66   -404.42791 
 1041000   0.10008227    7.2013616    969290.44    969297.71   -403.34625 
 1041500   0.10074259    7.1992897    969883.49    969890.76   -401.67513 
 1042000   0.10017453    7.1997168    969540.88    969548.15   -403.77929 
 1042500   0.10019751    7.2000599    968536.73       968544    -408.1276 
 1043000   0.10009662    7.1987359    969054.18    969061.45   -403.12349 
 1043500   0.09957096    7.1984326    967104.61    967111.88   -406.67606 
 1044000   0.10034696    7.1971664    967104.54     967111.8   -402.96925 
 1044500   0.10046888    7.1967221    967009.43    967016.69   -404.07673 
 1045000  0.099946136    7.1960593    967053.75    967061.01   -406.67076 
 1045500   0.10055258    7.1954626    965842.84     965850.1   -404.60849 
 1046000   0.10028253    7.1967318    966131.64     966138.9   -402.17877 
 1046500   0.10028613    7.1935024     965033.3    965040.56    -406.5604 
 1047000   0.10061435    7.1923214    965024.86    965032.12   -404.61271 
 1047500   0.10045653    7.1941769    964543.18    964550.44   -406.38897 
 1048000   0.10015953    7.1928961    964543.26    964550.51   -403.90438 
 1048500   0.10031738    7.1914286    963925.65    963932.91   -403.95951 
 1049000   0.10016865    7.1918202    963342.68    963349.94   -404.02524 
 1049500  0.099903754    7.1914691    961709.79    961717.05   -407.09107 
 1050000   0.10036545    7.1911993    960029.86    960037.11   -403.58436 
 1050500    0.1003448    7.1914919    960029.85    960037.11   -406.94297 
 1051000   0.10045973    7.1917243    957845.04     957852.3     -405.786 
 1051500   0.10032402    7.1910259    955421.47    955428.73    -408.6521 
 1052000  0.099886994     7.189499     951950.2    951957.46   -403.03134 
 1052500   0.10056932    7.1891157    950270.24    950277.49   -406.03107 
 1053000   0.10030039    7.1880205    948281.13    948288.38   -403.21082 
 1053500   0.10014917    7.1896193    945931.94     945939.2   -404.27767 
 1054000  0.099839764    7.1899622    943983.03    943990.28   -405.27248 
 1054500   0.10000471    7.1900074    943983.14     943990.4   -402.58509 
 1055000   0.10056184    7.1907642    940353.36    940360.62   -406.53778 
 1055500  0.099685282    7.1898719    937344.71    937351.96    -404.3064 
 1056000   0.10022743    7.1882202    934599.29    934606.55   -403.26338 
 1056500   0.10017829    7.1888082    934624.22    934631.48   -406.50658 
 1057000   0.10009465    7.1881401    931242.09    931249.34   -401.51575 
 1057500   0.10060982    7.1882974    929812.04     929819.3   -404.90964 
 1058000  0.099939316    7.1877302    928300.87    928308.12   -404.45637 
 1058500   0.10038302    7.1866749    925385.37    925392.62   -407.56169 
 1059000   0.10007181    7.1850623    925385.37    925392.62   -403.29257 
 1059500   0.10003004    7.1861102    922914.17    922921.42   -407.45889 
 1060000   0.10032661    7.1883339    921875.61    921882.86   -403.93305 
 1060500   0.10071385     7.188218    919624.91    919632.17   -404.91063 
 1061000   0.10014598    7.1876782    916501.07    916508.32   -404.54935 
 1061500   0.10015352    7.1871508    914114.88    914122.14   -405.76809 
 1062000   0.10016829     7.186605    912179.99    912187.24    -405.5054 
 1062500  0.099961977    7.1856485       912180    912187.26   -408.48564 
 1063000   0.10013503    7.1850916    910559.74    910566.99   -404.63381 
 1063500   0.10059914    7.1846092    911400.92    911408.18   -404.27978 
 1064000   0.10018661    7.1836807    910360.44    910367.69   -405.10986 
 1064500   0.10018233    7.1832517    909104.39    909111.64   -404.29028 
 1065000   0.10019511    7.1845732    909047.89    909055.15   -406.26725 
 1065500   0.10031543    7.1826938    910191.79    910199.04   -404.89934 
 1066000   0.10025033    7.1836726    910191.65     910198.9   -405.09328 
 1066500   0.10037128    7.1824604    910240.36    910247.61    -404.6384 
 1067000   0.10049805    7.1810771    910502.25     910509.5   -405.05417 
 1067500   0.10018897    7.1806818    910050.59    910057.84   -405.29805 
 1068000   0.10011868    7.1805427    911611.04    911618.29   -404.88033 
 1068500  0.099943021    7.1799823       911611    911618.25   -405.01146 
 1069000   0.10036425    7.1809268    911932.14    911939.39    -404.1864 
 1069500   0.10046672    7.1804416    913173.71    913180.96   -404.04817 
 1070000   0.10038162    7.1810921    913712.88    913720.13   -406.61519 
 1070500    0.1004319    7.1832273    915947.01    915954.26   -408.23847 
 1071000   0.10069878    7.1820751    917495.76    917503.01   -405.16459 
 1071500   0.10034257    7.1818038     920717.4    920724.64   -404.94568 
 1072000   0.10016099    7.1798201    922379.21    922386.46   -405.40523 
 1072500   0.10015494    7.1801412    922379.32    922386.57   -404.83155 
 1073000   0.10021026    7.1781038    925931.48    925938.73   -405.17183 
 1073500   0.10011647     7.177737    927653.51    927660.76   -404.59806 
 1074000   0.10053335    7.1762991    930797.46    930804.71   -404.49142 
 1074500   0.10004223      7.17508    934162.86     934170.1   -404.68964 
 1075000   0.10013102    7.1771525    936908.44    936915.69   -405.81336 
 1075500   0.10024535    7.1755367    936908.29    936915.53   -402.44349 
 1076000   0.10013396    7.1751772    942409.72    942416.96   -405.68623 
 1076500   0.10050718    7.1733936    946110.55    946117.79   -405.83157 
 1077000   0.10024538    7.1728414    946110.37    946117.61   -406.52808 
 1077500   0.10015514      7.17283     947366.2    947373.44   -404.55272 
 1078000   0.10029458    7.1722319    948927.37    948934.61   -406.16949 
 1078500   0.10026819     7.172134    949475.76       949483   -404.88084 
 1079000   0.10026447    7.1712964    950894.32    950901.56   -406.02999 
 1079500    0.1006338    7.1724178    950543.88    950551.12   -405.55348 
 1080000   0.10040935    7.1718251    951483.77    951491.01   -403.64192 
 1080500   0.10032126    7.1711806    951483.77       951491   -405.54224 
 1081000    0.1004626    7.1729301    951537.18    951544.42   -406.72866 
 1081500   0.10017913    7.1716029    950157.56     950164.8    -405.3205 
 1082000    0.1004406    7.1717953    950043.55    950050.79   -404.14358 
 1082500   0.10009644     7.171204     948323.2    948330.44   -403.37778 
 1083000   0.10017832    7.1709628    947635.03    947642.27   -402.05788 
 1083500   0.10070031    7.1697719    947634.91    947642.15   -402.42981 
 1084000   0.10008795    7.1718064    945341.55    945348.79   -406.39622 
 1084500   0.10055555    7.1726269    943042.87    943050.11   -407.94556 
 1085000   0.10014555    7.1740456    942390.01    942397.26   -406.18373 
 1085500   0.10030759    7.1734674    939652.03    939659.27   -404.43322 
 1086000   0.10029062     7.176851    938515.68    938522.92   -405.30396 
 1086500   0.10027503    7.1774228     938515.8    938523.05   -404.06909 
 1087000   0.10021276    7.1767209    935856.01    935863.25   -403.94083 
 1087500   0.10015301    7.1777025    933687.94    933695.18    -404.1797 
 1088000  0.099710917    7.1763166    930945.38    930952.62   -406.40789 
 1088500  0.099925864    7.1766861    927300.03    927307.28   -406.60233 
 1089000   0.10020603    7.1765734    924235.91    924243.16   -403.50591 
 1089500   0.10028352    7.1761088    920998.06    921005.31   -407.25954 
 1090000   0.10018887    7.1755632    920998.03    921005.28   -406.20227 
 1090500   0.10031777    7.1774675    919461.29    919468.53   -403.95866 
 1091000   0.10014954    7.1777092    918384.93    918392.17   -402.47141 
 1091500  0.099942105    7.1789625    917057.71    917064.95    -407.4956 
 1092000   0.10024048    7.1805199    917624.44    917631.69   -402.67263 
 1092500   0.10047201    7.1813528    916717.89    916725.14   -404.88393 
 1093000   0.10055947     7.182732    916717.76    916725.01   -404.25286 
 1093500   0.10066425    7.1821265    915880.76    915888.01   -403.84369 
 1094000   0.10025847    7.1821573    917077.85     917085.1   -405.88241 
 1094500   0.10013702    7.1847944    917077.76    917085.02    -402.9566 
 1095000   0.10064137    7.1853213    916859.83    916867.08    -404.9784 
 1095500   0.10071727    7.1868174    916628.35     916635.6   -404.87727 
 1096000   0.10021151    7.1850722    917365.01    917372.26   -405.83264 
 1096500   0.10066165    7.1871322    917365.05     917372.3   -403.97601 
 1097000   0.10043332    7.1870894    918214.84    918222.09   -403.72902 
 1097500   0.10030482    7.1874083    918585.71    918592.96   -407.56518 
 1098000   0.10023388    7.1894717    920170.27    920177.53   -404.25128 
 1098500  0.099864343    7.1901236    921023.06    921030.32   -402.62354 
 1099000   0.10029818    7.1897701    921980.76    921988.01     -405.661 
 1099500  0.099994852    7.1909793    921980.68    921987.94   -404.05037 
 1100000   0.10025633    7.1905527    927547.46    927554.71   -404.54394 
 1100500   0.10022465    7.1914018    927547.39    927554.65   -404.12616 
 1101000   0.10046145    7.1914922    932425.04     932432.3   -402.83282 
 1101500   0.10003645    7.1916271     935983.2    935990.46   -404.57848 
 1102000    0.1001222    7.1925698    939490.13    939497.39   -403.63268 
 1102500   0.10006313     7.194446    942494.28    942501.54   -405.94603 
 1103000   0.10043443    7.1943397    946435.83    946443.09   -402.08396 
 1103500   0.10015756    7.1937972    948618.46    948625.72   -403.96719 
 1104000   0.10033081    7.1946621    948618.37    948625.63   -405.36306 
 1104500   0.10021424     7.194219    950450.11    950457.37   -410.14632 
 1105000   0.10045831      7.19632    953419.55    953426.82   -402.73885 
 1105500   0.10014268    7.1961847    956907.25    956914.51   -403.62667 
 1106000   0.10006929     7.195421    960148.63    960155.89   -403.57503 
 1106500   0.10047052     7.195684    960148.57    960155.84   -403.69997 
 1107000  0.099996909    7.1968619    962009.97    962017.23   -404.48056 
 1107500   0.10040918    7.1971852     964615.7    964622.96   -405.02116 
 1108000   0.10035876    7.1962477    966979.49    966986.75   -402.95967 
 1108500  0.099908772    7.1983062    969926.93    969934.19   -403.33843 
 1109000   0.10001935     7.197736    972858.16    972865.43   -403.97092 
 1109500   0.10008557    7.1993024     973393.8    973401.07   -405.11961 
 1110000   0.10027894    7.1974231    975302.56    975309.82   -405.15811 
 1110500   0.10024585    7.1987173    975277.51    975284.77   -406.05587 
 1111000   0.10038602    7.1988415    974124.43     974131.7   -404.84297 
 1111500  0.099907966    7.1984353    973280.88    973288.14   -404.07884 
 1112000  0.099905615    7.2000539    973280.92    973288.19   -404.73985 
 1112500   0.10047716    7.2004756    972481.22    972488.49   -403.87847 
 1113000   0.10073782    7.2007594    973153.43     973160.7   -403.25341 
 1113500   0.10023073    7.2011861    972527.37    972534.64   -402.06595 
 1114000   0.10011561    7.2029834    971629.61    971636.88   -406.61061 
 1114500   0.10017077    7.2041003    971962.24    971969.51   -405.57097 
 1115000    0.1006438    7.2036518    970428.78    970436.05   -402.59404 
 1115500   0.10010653    7.2046609    970772.27    970779.54   -403.28314 
 1116000   0.10008782    7.2064794    970370.81    970378.08   -404.88295 
 1116500   0.10019666    7.2077247     970065.4    970072.68   -404.57796 
 1117000   0.10025136    7.2090478    968274.01    968281.29   -404.79734 
 1117500  0.099920544    7.2097746    967968.49    967975.77   -403.74409 
 1118000   0.10001817    7.2099557    967968.54    967975.82   -404.33211 
 1118500   0.10037152    7.2085781    968003.84    968011.12   -405.42596 
 1119000    0.1001275    7.2097522    967331.16    967338.43   -403.29595 
 1119500   0.10009491    7.2106531    966752.41    966759.68   -404.14501 
 1120000   0.10075299    7.2107658    966055.74    966063.02   -406.76974 
 1120500    0.1002673    7.2130887     964449.3    964456.58   -405.85881 
 1121000   0.10005904    7.2145511    963753.02     963760.3   -403.73849 
 1121500   0.10040174    7.2138732    962564.12     962571.4   -404.20357 
 1122000   0.10016125    7.2144749    962405.28    962412.56   -405.63603 
 1122500   0.10005787    7.2147374    962603.47    962610.75   -404.18749 
 1123000   0.10017824    7.2151767    963213.45    963220.73   -405.48432 
 1123500   0.10014794    7.2138691    963367.85    963375.13   -406.31338 
 1124000   0.10021203    7.2161282    963223.42     963230.7   -405.40722 
 1124500   0.10036509    7.2155552    964221.55    964228.83   -403.97974 
 1125000   0.10035989    7.2154706    965274.22     965281.5   -403.71925 
 1125500  0.099865111     7.215918    964515.46    964522.74   -402.94862 
 1126000   0.10024198    7.2165965    964138.01     964145.3    -403.2891 
 1126500  0.099940045     7.217429    964131.78    964139.06   -405.40982 
 1127000   0.10048688    7.2191255    964131.64    964138.93   -407.32345 
 1127500    0.1000953    7.2206201    963915.96    963923.25   -405.22074 
 1128000  0.099991083    7.2197198    963550.53    963557.82   -403.80304 
 1128500   0.10011511    7.2200789    964950.99    964958.28   -404.36713 
 1129000    0.1006627    7.2202274    965656.44    965663.72   -406.13382 
 1129500   0.10024193    7.2200779    966793.21     966800.5   -407.35509 
 1130000   0.10010329    7.2210677    966721.61     966728.9   -402.86065 
 1130500   0.10049869    7.2217354    966725.78    966733.07   -406.34216 
 1131000  0.099889838    7.2213402    966684.96    966692.25   -405.09003 
 1131500   0.10040511    7.2219289    966247.56    966254.85   -403.71479 
 1132000    0.1003772    7.2224143    964271.57    964278.86   -405.07061 
 1132500   0.10016961    7.2227809    962008.78    962016.07   -402.19828 
 1133000   0.10039805     7.222638    962008.74    962016.03   -406.11759 
 1133500   0.10034914    7.2230373    960453.04    960460.33   -404.85911 
 1134000    0.1000803    7.2247585    958876.84    958884.13   -405.66172 
 1134500   0.10058568    7.2247562    957611.86    957619.15   -406.39463 
 1135000   0.10057782    7.2245886    955981.49    955988.78   -403.64269 
 1135500   0.10055808    7.2258148    954279.27    954286.56   -407.55523 
 1136000   0.10006368    7.2268974    952680.33    952687.62   -404.33881 
 1136500   0.10061743    7.2279453    952414.64    952421.93    -403.1395 
 1137000   0.10020096    7.2294641    952414.64    952421.93   -404.98933 
 1137500   0.10054348    7.2301404    951495.42    951502.72    -406.0608 
 1138000   0.10030333    7.2292639    952220.07    952227.36   -404.91881 
 1138500   0.10040884     7.228039    951423.06    951430.35   -404.41779 
 1139000   0.10008387    7.2293781    953511.15    953518.45    -406.6777 
 1139500   0.10035626    7.2291933    952903.62    952910.91   -406.67494 
 1140000   0.10023901    7.2309697    951940.98    951948.28   -403.36624 
 1140500   0.09966446    7.2291307    951293.04    951300.34   -404.94359 
 1141000   0.10025067    7.2295619    948982.25    948989.55   -405.52961 
 1141500   0.10004656    7.2310751    947617.18    947624.48   -406.64592 
 1142000   0.10042041    7.2304567    947617.24    947624.54     -404.109 
 1142500   0.10033637    7.2289408    947723.44    947730.73   -404.79473 
 1143000   0.10013095    7.2294232    948137.88    948145.17   -406.26932 
 1143500   0.10011549    7.2325496    947851.15    947858.45   -404.92652 
 1144000   0.10017221    7.2327649    948433.07    948440.37   -404.73364 
 1144500   0.10074468    7.2307519    948759.48    948766.77    -406.0745 
 1145000   0.10004943     7.230719    949070.02    949077.31    -406.2285 
 1145500  0.099957907    7.2309941    948548.72    948556.02   -406.62553 
 1146000   0.10028835    7.2309137    948548.65    948555.95   -404.90247 
 1146500   0.10010259    7.2302289    949882.91    949890.21   -406.33212 
 1147000    0.1004412    7.2317805    949854.55    949861.85    -402.6181 
 1147500   0.10007954    7.2316977    949604.53    949611.83   -406.10713 
 1148000   0.10031039    7.2303774    949604.55    949611.85   -402.99208 
 1148500  0.099918737    7.2295156    950473.88    950481.18   -404.39976 
 1149000     0.100102    7.2301163    950474.01    950481.31   -405.75736 
 1149500   0.10014446    7.2302669    950691.55    950698.84   -405.64314 
 1150000   0.10043685    7.2321513     950414.6     950421.9    -403.3929 
 1150500   0.10039561    7.2328692     950414.8     950422.1   -404.75221 
 1151000   0.10070296    7.2312557    951383.73    951391.03   -403.60565 
 1151500   0.10008479    7.2325152    951749.15    951756.45   -405.06165 
 1152000   0.10023838    7.2294373    951129.39    951136.69   -403.26096 
 1152500   0.10059069    7.2299751    950035.41    950042.71    -408.0018 
 1153000   0.10027413     7.229402    949276.53    949283.82   -403.41193 
 1153500   0.10053382    7.2295593    948035.33    948042.62   -407.32085 
 1154000   0.10057349    7.2288725    946418.98    946426.27   -405.83073 
 1154500   0.10002981    7.2280438    944534.66    944541.95   -406.42439 
 1155000     0.100522    7.2308095    942580.77    942588.07   -405.07429 
 1155500   0.10057091    7.2298424    942580.71       942588   -405.01636 
 1156000  0.099792032    7.2295167    940662.47    940669.76   -405.31854 
 1156500  0.099751595     7.230465    937104.72    937112.02   -406.53308 
 1157000   0.10008004    7.2295819    937104.71    937112.01   -405.73952 
 1157500   0.10000201    7.2296857    931897.42    931904.71    -405.9802 
 1158000   0.10041111    7.2296067    929458.23    929465.52   -403.20364 
 1158500   0.10013337    7.2288857    929458.21    929465.51   -402.59396 
 1159000    0.1001509    7.2300497    926894.66    926901.96   -404.77548 
 1159500   0.10021441    7.2282263    926292.36    926299.66   -406.17723 
 1160000   0.10064972    7.2274783    923095.23    923102.52   -403.45392 
 1160500    0.1006651    7.2267762    921646.22    921653.51   -403.67349 
 1161000    0.1008445     7.227559    921646.21    921653.51   -401.79561 
 1161500   0.10074898    7.2292919    919546.19    919553.48    -405.2346 
 1162000   0.10038363    7.2282801    918443.96    918451.26    -406.8895 
 1162500   0.10084031    7.2270615    918617.92    918625.21   -403.45658 
 1163000    0.1002697    7.2268757    917975.46    917982.75   -405.49436 
 1163500   0.10028469    7.2255846    917369.64    917376.94   -404.38504 
 1164000   0.10045856    7.2246944    916523.76    916531.05   -405.11232 
 1164500   0.10050765    7.2245614    916523.79    916531.08   -404.26382 
 1165000  0.099918178    7.2229885    915447.34    915454.63   -404.27914 
 1165500   0.10008552    7.2221535    914660.23    914667.51   -404.22941 
 1166000   0.10034752    7.2203834    915503.16    915510.45   -404.39211 
 1166500   0.10021184    7.2222421    916722.56    916729.85   -404.58423 
 1167000   0.10005696     7.223124    916316.46    916323.75   -406.10736 
 1167500   0.10021901    7.2227312    916315.48    916322.77   -404.93634 
 1168000  0.099990224    7.2235401    917417.04    917424.33    -403.8723 
 1168500   0.10011594     7.222123    918181.09    918188.38   -404.21706 
 1169000   0.10034791    7.2209937    919057.26    919064.55   -405.59715 
 1169500  0.099833319    7.2210659    920464.56    920471.85   -405.30015 
 1170000   0.10031545    7.2208037    923412.44    923419.73   -403.09849 
 1170500   0.10043748    7.2197138    924896.59    924903.87   -406.50893 
 1171000   0.10029093    7.2194896    928341.47    928348.75   -404.19149 
 1171500   0.10028978     7.220582    928341.42    928348.71   -403.71267 
 1172000   0.10026973    7.2209851    930327.61    930334.89   -404.21727 
 1172500   0.10013748    7.2225164    932591.99    932599.28   -401.76201 
 1173000  0.099929754     7.222666    935282.27    935289.56       -404.1 
 1173500   0.10029658     7.223743    935573.49    935580.78   -404.60014 
 1174000   0.10060825    7.2201029    937037.57    937044.86    -405.3644 
 1174500   0.10035238    7.2184014    939601.12     939608.4   -404.79035 
 1175000  0.099788958    7.2210673    942366.63    942373.92   -404.23275 
 1175500   0.10008449     7.221844     942366.5    942373.79   -405.68173 
 1176000   0.10057687    7.2220019    944691.03    944698.32   -405.47951 
 1176500   0.10041354    7.2223343    946177.39    946184.67   -405.22251 
 1177000    0.1003297    7.2215112    946555.72    946563.01   -405.83347 
 1177500   0.10046721    7.2208276    946555.72    946563.01   -406.09288 
 1178000   0.10023041    7.2222021    946574.05    946581.34   -403.82394 
 1178500   0.10044486    7.2236333    946643.73    946651.02   -403.26212 
 1179000  0.099882969    7.2227842    947472.26    947479.55   -401.73091 
 1179500   0.10027494    7.2217506    948026.84    948034.13   -403.83924 
 1180000   0.10029626    7.2200003    947348.55    947355.84   -404.87191 
 1180500   0.10036547     7.219773    946567.48    946574.76   -405.24498 
 1181000  0.099927312    7.2202719     946056.1    946063.39   -406.98885 
 1181500   0.10055299    7.2212967     944398.1    944405.39   -404.19645 
 1182000   0.10008745    7.2210497    943297.66    943304.95   -407.43077 
 1182500   0.10033075    7.2219316    942056.59    942063.87   -405.44776 
 1183000  0.099709893    7.2225776    940467.97    940475.26   -404.77019 
 1183500  0.099786765    7.2222569    938305.25    938312.53   -407.82185 
 1184000   0.10012365    7.2229895    936296.35    936303.64   -405.91165 
 1184500   0.10010349    7.2240818    933153.56    933160.85   -406.91627 
 1185000   0.10039315    7.2265952    929289.61     929296.9   -404.95633 
 1185500   0.10033069    7.2252411    929289.45    929296.74    -404.5182 
 1186000  0.099745192    7.2260321    926570.65    926577.94   -405.01878 
 1186500  0.099920646    7.2272922    924619.41     924626.7   -405.34655 
 1187000   0.10045857    7.2267439    921161.79    921169.08   -405.22154 
 1187500   0.10015435    7.2285059    919115.45    919122.75   -405.02165 
 1188000   0.10047608    7.2301964    915256.29    915263.59   -404.76115 
 1188500  0.099997703    7.2300388    912528.48    912535.78   -404.34023 
 1189000  0.099938219      7.23038    908535.99    908543.29   -405.04864 
 1189500  0.099798686    7.2305794    908535.95    908543.25   -404.19466 
 1190000   0.10020807    7.2289365    903131.31     903138.6   -404.30832 
 1190500   0.10010964    7.2264752    899656.94    899664.23   -405.32587 
 1191000   0.10023431    7.2284468    896036.72    896044.01   -406.94908 
 1191500   0.10038362    7.2282575    893725.91    893733.21   -404.51895 
 1192000   0.10009427    7.2282022    892229.23    892236.52   -404.94859 
 1192500   0.10079718     7.227131    892229.07    892236.37   -405.25349 
 1193000   0.10071231    7.2297325    889292.74    889300.03   -404.68896 
 1193500   0.10021273    7.2289234    886892.29    886899.59   -407.11765 
 1194000  0.099968393    7.2285958    885403.14    885410.43   -405.23462 
 1194500    0.1005014    7.2286578     885235.7       885243   -402.62159 
 1195000  0.099610004     7.228834    885235.69    885242.99   -407.78824 
 1195500   0.10069579    7.2300406    884574.98    884582.28   -404.73062 
 1196000   0.10032659    7.2292083    885396.13    885403.43   -404.60169 
 1196500   0.10021955    7.2302179    886256.54    886263.84   -404.51313 
 1197000   0.10042322    7.2302444    887352.61    887359.91   -407.01516 
 1197500   0.10045407    7.2291443    887937.65    887944.95   -404.54468 
 1198000   0.10044553     7.229961    888886.48    888893.77   -404.98498 
 1198500   0.10025135    7.2304759    890619.45    890626.75   -404.14133 
 1199000   0.10014495    7.2291656    891189.01     891196.3   -403.71515 
 1199500   0.10045175    7.2295778    891188.98    891196.27   -404.38866 
 1200000   0.10027257    7.2299981    894860.01    894867.31   -405.01732 
 1200500   0.10043682    7.2301432     894860.1    894867.39    -405.4272 
 1201000   0.10022897    7.2298384    897849.99    897857.28   -404.11871 
 1201500    0.1002194    7.2309786    901228.71    901236.01   -403.94254 
 1202000   0.10024716    7.2322107    903460.14    903467.44   -404.88778 
 1202500   0.10052343    7.2335452    903460.07    903467.37   -406.18007 
 1203000    0.1002547    7.2324283    906174.17    906181.47   -404.87589 
 1203500   0.10042837    7.2330693    908072.97    908080.27    -402.6385 
 1204000   0.10061281     7.234169    910032.59    910039.89   -406.62034 
 1204500  0.099855641    7.2333924    912591.59    912598.89   -404.72589 
 1205000   0.10008489    7.2344684    915114.67    915121.97   -404.83914 
 1205500   0.10024295    7.2341381    915114.64    915121.94     -404.933 
 1206000   0.10051873    7.2341268    918814.14    918821.44   -402.70217 
 1206500   0.10021573    7.2339435    921538.26    921545.56   -404.51134 
 1207000   0.10008577    7.2365748    922902.46    922909.77   -404.34818 
 1207500   0.10022944    7.2362559    924622.42    924629.72   -403.37624 
 1208000   0.10039975    7.2363712    928857.54    928864.85   -404.09016 
 1208500   0.10034653    7.2368964    930878.01    930885.31   -403.88871 
 1209000   0.10076716    7.2353561    932315.49    932322.79   -404.12244 
 1209500   0.09995755    7.2344583    932315.34    932322.64   -403.51737 
 1210000   0.10027521    7.2332624    935690.28    935697.58   -403.53228 
 1210500   0.10039542    7.2347862    936813.49    936820.79   -406.94359 
 1211000   0.10015381    7.2336552    937296.45    937303.75   -405.43185 
 1211500   0.10038926    7.2335923    938464.06    938471.36   -407.47145 
 1212000   0.10014954     7.236204    939749.12    939756.42   -403.53215 
 1212500  0.099872407    7.2355198    939749.16    939756.46   -405.36777 
 1213000   0.10004708    7.2339477    941043.66    941050.96   -404.49778 
 1213500   0.10024107    7.2346761    943416.69    943423.99   -406.19172 
 1214000   0.10040257    7.2340294    944132.02    944139.32   -405.44589 
 1214500  0.099995436    7.2324496    944996.35    945003.64   -406.63143 
 1215000  0.099976201    7.2319476    945360.88    945368.18   -404.75513 
 1215500   0.10035495     7.230906    944921.32    944928.62   -405.71779 
 1216000   0.10037193    7.2305364    945332.14    945339.44   -402.33781 
 1216500  0.099972608    7.2329253    944284.85    944292.15   -402.47995 
 1217000   0.10052177    7.2312547    945313.29    945320.59   -404.35266 
 1217500   0.10041439    7.2329645    945954.38    945961.68   -406.19864 
 1218000   0.10048079    7.2308561    945954.33    945961.63   -405.84605 
 1218500    0.1002886     7.231193    947221.11    947228.41   -406.28877 
 1219000   0.10010277    7.2313837    947421.65    947428.95    -405.4085 
 1219500   0.10057075    7.2300238    947580.68    947587.98   -404.87512 
 1220000   0.10027091    7.2293493    948168.67    948175.97   -404.26513 
 1220500    0.1008884    7.2285794    948671.29    948678.58   -403.15939 
 1221000   0.10023807    7.2270997    950275.05    950282.35    -406.0193 
 1221500   0.10037444    7.2279507    950256.91    950264.21   -404.59132 
 1222000   0.10044091    7.2286792    950256.87    950264.16   -403.75991 
 1222500   0.10025672     7.227286    952985.05    952992.34   -408.25998 
 1223000   0.10016127    7.2262877    957008.97    957016.27   -404.75321 
 1223500   0.10047889    7.2270455    957008.97    957016.26   -404.55017 
 1224000   0.10009684    7.2262279    958476.06    958483.35   -406.68435 
 1224500   0.10051025    7.2261823    958385.14    958392.43   -405.69917 
 1225000   0.10030014    7.2267922    959677.43    959684.72   -402.98359 
 1225500   0.10044712     7.226044    960374.92    960382.21   -405.50527 
 1226000   0.10030397    7.2275663     960341.4     960348.7   -402.74588 
 1226500  0.099789343    7.2270323    960341.39    960348.68   -404.94295 
 1227000   0.10001812     7.225232     961635.2    961642.49   -403.38558 
 1227500   0.09997777    7.2275847    960668.24    960675.53   -405.84165 
 1228000   0.10047636    7.2274205    959418.08    959425.38   -405.19482 
 1228500   0.10001593    7.2258475    959418.07    959425.36   -403.44816 
 1229000   0.10059503    7.2267708    959400.08    959407.38   -405.01959 
 1229500   0.10056574    7.2254855    958625.14    958632.43   -404.67992 
 1230000   0.10003373     7.226461    958112.33    958119.62   -407.14966 
 1230500   0.10034102    7.2264987    958112.43    958119.72   -403.02769 
 1231000  0.099992467    7.2249785    956594.69    956601.98   -401.60565 
 1231500   0.10034255    7.2237002    954492.34    954499.63   -403.03128 
 1232000   0.10038976    7.2238607     953294.8    953302.09   -404.20732 
 1232500   0.10042261    7.2234251     950450.6    950457.89   -405.09798 
 1233000   0.10067045    7.2220836    948202.98    948210.27   -402.32554 
 1233500  0.099857851    7.2232611    946191.02    946198.31   -403.82379 
 1234000   0.10031041    7.2238401    946191.08    946198.37    -406.4668 
 1234500   0.10012359    7.2221886    943823.64    943830.93   -406.19441 
 1235000   0.10024973    7.2247686    942091.59    942098.88   -407.01507 
 1235500   0.10009105    7.2250369    939292.45    939299.74    -403.2832 
 1236000    0.1003009    7.2259433    936305.22    936312.51   -405.94004 
 1236500   0.10018167    7.2245621     935902.9    935910.19   -403.41999 
 1237000   0.10030635    7.2266104    935902.82    935910.11   -404.84667 
 1237500   0.10029188    7.2263142     933462.7    933469.99   -405.12968 
 1238000   0.10019715    7.2259432    932406.65    932413.95   -407.65605 
 1238500   0.10000072    7.2252445    931529.86    931537.15   -402.96061 
 1239000   0.10074869    7.2264207    931105.73    931113.02   -402.33028 
 1239500   0.10057762    7.2268599    932615.45    932622.74   -405.89274 
 1240000  0.099986912     7.226266    932011.95    932019.24   -404.10437 
 1240500   0.10087983    7.2276436     931717.1     931724.4   -403.50992 
 1241000   0.10012758    7.2277173    930707.21    930714.51   -402.16496 
 1241500   0.10017227    7.2285667    929785.42    929792.71   -406.06214 
 1242000   0.10024337    7.2267178    929785.35    929792.64   -406.85064 
 1242500   0.10036147    7.2257059    928599.28    928606.57   -405.18234 
 1243000   0.10040894    7.2251722     927093.8     927101.1   -407.69192 
 1243500   0.10000159    7.2253879    926883.57    926890.87   -405.46789 
 1244000   0.10002343    7.2252903    926304.83    926312.12   -406.34686 
 1244500  0.099773541    7.2242021    925709.41     925716.7   -402.25598 
 1245000   0.10047541    7.2253066    924953.46    924960.76   -406.17532 
 1245500  0.099738404    7.2251452    924522.81    924530.11   -402.99186 
 1246000   0.10037368    7.2256286     923316.4    923323.69   -403.72235 
 1246500   0.10032154    7.2259599       923334    923341.29   -405.06391 
 1247000  0.099814269    7.2247928    923334.13    923341.42   -403.60743 
 1247500   0.10021628    7.2259829    922499.34    922506.64   -406.11725 
 1248000   0.09964485    7.2255739    922047.34    922054.64   -402.03249 
 1248500  0.099821845    7.2256652    922872.53    922879.82    -403.5311 
 1249000    0.1007448    7.2252631    922950.06    922957.36   -403.78099 
 1249500   0.10019026    7.2247812    923529.57    923536.86   -404.40884 
 1250000    0.1001395    7.2234594    924488.24    924495.54   -405.60888 
 1250500   0.10025754    7.2251009    924488.35    924495.64   -405.38305 
 1251000   0.10034148    7.2259683     925362.1     925369.4   -405.72353 
 1251500   0.10020768    7.2257006    925597.01     925604.3   -401.52028 
 1252000   0.10042078    7.2258331    926592.19    926599.48   -406.25549 
 1252500    0.0998286    7.2277203    927437.71       927445   -405.78729 
 1253000   0.10032185    7.2279696    927367.05    927374.34   -403.84663 
 1253500   0.10034764    7.2267172    927367.05    927374.35   -404.86992 
 1254000   0.10017864    7.2271109    929005.55    929012.84   -405.28534 
 1254500  0.099933815    7.2270857    929270.49    929277.79   -404.18006 
 1255000  0.099848395    7.2273572    929879.85    929887.14   -402.86248 
 1255500  0.099975368    7.2277742    931244.08    931251.38   -406.44188 
 1256000  0.099965967    7.2258047    931244.15    931251.45   -406.74177 
 1256500   0.10018834    7.2275376    932757.42    932764.71   -406.32254 
 1257000   0.10031159     7.227152    933571.14    933578.43   -405.90744 
 1257500   0.10016155     7.227782    936317.47    936324.77   -403.82045 
 1258000   0.10043068    7.2270507    936317.39    936324.68   -406.35287 
 1258500    0.0998555    7.2258659    937655.32    937662.61   -406.23303 
 1259000   0.10014419    7.2267079    940316.69    940323.98   -404.50534 
 1259500   0.10028663    7.2278824    941501.55    941508.84   -402.90802 
 1260000   0.10066156    7.2255471    942708.42    942715.71   -405.35343 
 1260500   0.10012723    7.2271525    944309.79    944317.08   -403.68435 
 1261000   0.10044826    7.2269656    946002.91     946010.2     -405.817 
 1261500   0.10035186    7.2272967     946003.1     946010.4    -403.5336 
 1262000   0.10032971    7.2268632    948317.66    948324.96   -405.15573 
 1262500  0.099795081    7.2261064    948317.77    948325.06   -405.97176 
 1263000   0.10046715     7.226133    949271.25    949278.54   -406.77422 
 1263500   0.10001895    7.2274977    952058.29    952065.58   -405.78093 
 1264000   0.10010076    7.2257983    953840.15    953847.44    -402.4015 
 1264500   0.10010976    7.2256897    956691.71       956699   -405.20357 
 1265000   0.10036385    7.2249682    956691.78    956699.07   -405.58464 
 1265500   0.10018096    7.2244943    958745.27    958752.56    -404.4549 
 1266000   0.10064134    7.2232185     960819.3    960826.59   -405.09982 
 1266500   0.10059361    7.2235016    961270.44    961277.73   -404.15986 
 1267000   0.10005001     7.224047     962069.7    962076.99   -404.71895 
 1267500  0.099877347    7.2234063    961448.11     961455.4   -405.45373 
 1268000   0.10063197    7.2214179    960628.87    960636.16   -402.65092 
 1268500    0.1000792    7.2207902     958869.6    958876.89   -404.98861 
 1269000   0.10000251    7.2203113    958869.56    958876.85   -404.09622 
 1269500   0.10047097    7.2180757    956369.79    956377.07   -405.84759 
 1270000   0.10034254     7.221955     952911.7    952918.99   -403.72243 
 1270500   0.10022453    7.2172103    951268.26    951275.54    -406.2285 
 1271000   0.10020266    7.2174964    951268.22    951275.51   -405.17745 
 1271500   0.10065487    7.2181908    949718.03    949725.31   -405.59544 
 1272000  0.099950786    7.2179666    945157.63    945164.91     -402.847 
 1272500   0.10035819    7.2188497    942029.97    942037.26   -404.68446 
 1273000   0.10018714     7.220531    939819.02     939826.3   -404.57301 
 1273500   0.10029064    7.2194196    939818.98    939826.27   -403.21283 
 1274000   0.10019626    7.2189915    936336.83    936344.11    -405.0752 
 1274500   0.10002412    7.2184556    933060.89    933068.18   -404.38353 
 1275000   0.10061188    7.2187244    930198.03    930205.32   -404.51048 
 1275500    0.1003458    7.2188838    928068.94    928076.23   -406.51777 
 1276000   0.10019257    7.2182891    928069.02    928076.31    -406.4215 
 1276500    0.1003466    7.2202142    926070.62     926077.9    -405.1367 
 1277000   0.10003388    7.2195524    923209.72    923217.01    -401.6184 
 1277500    0.1002032    7.2199553    919386.76    919394.05   -407.30242 
 1278000   0.10055475    7.2172396     916442.1    916449.39   -404.39525 
 1278500  0.099979921    7.2162481    914499.68    914506.96    -405.7179 
 1279000  0.099885843    7.2167087    914499.81    914507.09   -404.80282 
 1279500    0.1004322    7.2166315    912448.62    912455.91   -405.54293 
 1280000   0.10049145    7.2153694    911499.66    911506.95    -404.3715 
 1280500   0.10044908    7.2142987    909099.51    909106.79    -404.1213 
 1281000   0.10044466    7.2145108    906686.39    906693.68   -405.36947 
 1281500   0.10017446    7.2135702    905315.75    905323.03    -404.7892 
 1282000  0.099957345    7.2133132    905315.74    905323.02   -406.15228 
 1282500     0.100162    7.2141365    902236.25    902243.53   -402.78964 
 1283000   0.10040358    7.2114635    900808.58    900815.86   -404.90511 
 1283500   0.10015764     7.213978    897715.17    897722.45   -403.43101 
 1284000   0.10026733     7.213374       895653    895660.28   -403.31939 
 1284500   0.10033463    7.2120994    895107.87    895115.15   -403.13261 
 1285000   0.10015204     7.213111    893682.74    893690.02    -404.2661 
 1285500    0.1002921    7.2114494    892224.55    892231.83   -406.27725 
 1286000   0.10046311    7.2128048    891969.65    891976.93   -407.12678 
 1286500   0.10021911    7.2125115    893191.34    893198.62   -404.67251 
 1287000  0.099939132    7.2129609    892716.84    892724.12   -404.76889 
 1287500   0.10011048     7.209453    892716.81    892724.09   -406.55371 
 1288000   0.10015783    7.2082639    893610.43    893617.71    -404.7023 
 1288500   0.10001997    7.2099137    894996.04    895003.32   -405.07456 
 1289000   0.10012663    7.2099579     896081.1    896088.37   -407.50654 
 1289500  0.099653022    7.2088379    898603.17    898610.45   -405.12626 
 1290000   0.10025285    7.2103885    900806.78    900814.06   -404.46639 
 1290500  0.099918681    7.2091711     900806.8    900814.08   -404.96057 
 1291000    0.1003607    7.2083461    905957.66    905964.94   -406.16912 
 1291500   0.10037668    7.2078913    906459.83     906467.1    -402.1721 
 1292000   0.10033788    7.2074282    909096.16    909103.44    -405.3862 
 1292500   0.09985599    7.2071546    911921.59    911928.86   -404.63708 
 1293000    0.1005322     7.206993    916064.24    916071.51   -404.18472 
 1293500    0.1001049    7.2071737    916064.15    916071.43    -404.9541 
 1294000   0.10034584    7.2068174    919971.12    919978.39    -404.0196 
 1294500   0.10022008    7.2076552    921107.43     921114.7   -404.12272 
 1295000    0.1002121    7.2108862    922866.72    922873.99   -403.67401 
 1295500   0.10046266    7.2076155    924455.63    924462.91    -404.2218 
 1296000    0.1004848    7.2083781    924455.57    924462.85   -403.05153 
 1296500   0.10014985    7.2093497    927177.63     927184.9   -403.51214 
 1297000   0.10025629    7.2082147    928822.43    928829.71   -404.30913 
 1297500    0.1003875    7.2078789       931239    931246.28   -405.28812 
 1298000   0.10015924    7.2087287    931954.08    931961.36   -404.85806 
 1298500   0.10022804    7.2091502     931362.2    931369.47   -405.27986 
 1299000    0.1005483    7.2106877    933212.97    933220.25   -407.45436 
 1299500   0.09994482    7.2099069    935980.79    935988.06   -406.12969 
 1300000  0.099994124    7.2083853    935382.65    935389.93    -404.7996 
 1300500   0.10006119    7.2065583     935382.7    935389.98   -407.47743 
 1301000  0.099921244    7.2067258    937258.56    937265.83   -405.23683 
 1301500   0.10043191    7.2090516    938052.05    938059.32   -403.39612 
 1302000   0.10004531    7.2076018    936374.44    936381.72   -406.45169 
 1302500   0.10040134    7.2067946    935988.23     935995.5   -405.14729 
 1303000   0.10022416    7.2045666    935293.91    935301.18    -405.1618 
 1303500   0.10006643    7.2046216    935293.88    935301.15   -405.37631 
 1304000   0.10027196    7.2067898    936054.96    936062.23    -403.9507 
 1304500   0.10007238    7.2063028    936948.87    936956.14   -406.97001 
 1305000   0.10000052    7.2056452     937332.6    937339.87   -406.22936 
 1305500   0.10035821    7.2053843    937609.66    937616.94   -405.56468 
 1306000   0.10017426    7.2052266    938351.31    938358.58   -404.68916 
 1306500   0.10075567     7.205377    939824.17    939831.44   -403.93762 
 1307000   0.10037419    7.2039298    938483.12    938490.39   -403.31021 
 1307500   0.10015115      7.20486    937813.15    937820.42   -403.07261 
 1308000   0.10053449    7.2065235    937813.21    937820.48   -406.28943 
 1308500    0.1004426    7.2067938    937044.73    937052.01   -403.28119 
 1309000   0.10021187    7.2087422    936254.51    936261.79   -406.82558 
 1309500  0.099865008    7.2068027     934896.7    934903.98   -405.15873 
 1310000   0.10021161    7.2062546    934475.78    934483.05   -404.18784 
 1310500  0.099530352    7.2068115    934401.83    934409.11   -403.00273 
 1311000   0.10024164    7.2054261    936130.89    936138.16   -403.26732 
 1311500   0.10027911    7.2043485    937267.62    937274.89   -404.11442 
 1312000   0.10017318    7.2035286    937267.59    937274.86   -402.91143 
 1312500   0.10033537    7.2028562    937707.91    937715.18   -406.60048 
 1313000   0.10035099    7.2033962    937914.37    937921.64   -403.98226 
 1313500   0.10042625    7.2055798    938504.05    938511.33   -404.66684 
 1314000   0.10012048    7.2039937    938621.01    938628.28   -401.63723 
 1314500   0.10013487    7.2032193     938513.2    938520.47   -403.73475 
 1315000   0.10003343    7.2034222    939623.44    939630.71   -403.73873 
 1315500   0.10069309    7.2052309    939623.47    939630.74   -403.72215 
 1316000   0.10020962    7.2039912    940692.18    940699.45   -407.47807 
 1316500   0.10065955    7.2035469    942797.44    942804.71   -406.02405 
 1317000   0.10018227    7.2027061    942797.49    942804.76   -404.63908 
 1317500   0.10009941    7.2017345    942176.46    942183.73    -405.3819 
 1318000   0.10003889    7.2028138    942610.56    942617.83   -405.61706 
 1318500  0.099846638    7.2039334    941661.46    941668.73   -405.22344 
 1319000   0.10030185    7.2036091    941845.73       941853   -405.64127 
 1319500   0.10021937    7.2054806    941845.79    941853.06   -405.22933 
 1320000   0.10032897    7.2063971    941956.35    941963.62   -406.39705 
 1320500   0.10029226    7.2060042    942714.99    942722.26   -403.10603 
 1321000   0.09986562     7.206238    942709.26    942716.53   -406.78306 
 1321500   0.10043023    7.2066619    942600.57    942607.84   -401.32034 
 1322000   0.10071301    7.2066377    941690.26    941697.54    -402.5524 
 1322500  0.099953731    7.2054366    942162.53     942169.8   -402.55079 
 1323000   0.10036648    7.2044474    942162.54    942169.81    -405.9424 
 1323500   0.10047368    7.2059441    943639.52     943646.8   -403.08247 
 1324000    0.1001518    7.2055094    945084.65    945091.92   -403.38512 
 1324500   0.10000166    7.2053932    945084.67    945091.94   -402.26919 
 1325000  0.099990394     7.203853    946098.28    946105.55   -404.81992 
 1325500   0.10039684     7.204774     946226.2    946233.47    -405.5404 
 1326000   0.10014454    7.2045339    948354.32    948361.59   -403.72974 
 1326500   0.10012589    7.2046952    948572.04    948579.31   -404.60343 
 1327000   0.10010824    7.2029952    948585.94    948593.21   -401.39441 
 1327500   0.10031483     7.204542    947701.52    947708.79   -407.00964 
 1328000   0.10069858    7.2080742    947282.37    947289.64   -403.96097 
 1328500   0.10008967    7.2063708    946856.95    946864.22   -406.03282 
 1329000   0.10007338    7.2093006    945455.74    945463.01   -404.49043 
 1329500   0.10007756    7.2088553    945455.59    945462.86   -407.44929 
 1330000   0.10025598    7.2079706    945786.47    945793.75   -405.39985 
 1330500   0.10004127    7.2083641    945958.94    945966.22   -403.80729 
 1331000   0.10038905    7.2094616    944636.68    944643.96   -402.69239 
 1331500   0.10046381    7.2096145    944040.53    944047.81   -404.78847 
 1332000   0.10062861    7.2104498     940788.1    940795.38   -405.00503 
 1332500   0.10047333    7.2107463    940227.21    940234.49   -404.08285 
 1333000   0.10044803    7.2088542    938784.08    938791.36    -404.5115 
 1333500   0.10044223    7.2094043    937636.21    937643.49   -404.06927 
 1334000  0.099884441    7.2108753     935324.9    935332.17   -403.44579 
 1334500   0.10027655    7.2107591    935319.77    935327.04   -403.72821 
 1335000   0.10047751    7.2113883    935319.73    935327.01   -405.75399 
 1335500   0.10003843    7.2113863    934431.17    934438.45   -404.52695 
 1336000    0.1000813    7.2123419    933340.41    933347.69   -404.94344 
 1336500   0.10020598    7.2123047    932839.15    932846.43   -405.36105 
 1337000  0.099764436    7.2135706    931839.88    931847.16   -404.99131 
 1337500   0.10031956    7.2125344    930726.52     930733.8   -402.61516 
 1338000  0.099783954    7.2140764    930726.62     930733.9   -406.42279 
 1338500   0.10023635    7.2167973    929387.18    929394.46    -404.4444 
 1339000   0.10014435    7.2165981     928928.8    928936.08   -405.18866 
 1339500   0.10034886    7.2155953    929523.67    929530.95   -405.99663 
 1340000   0.10005017    7.2167893    929523.67    929530.95   -404.23932 
 1340500  0.099944378    7.2193959     931487.7    931494.99    -404.6442 
 1341000   0.10040403    7.2183902    932940.79    932948.07   -404.24903 
 1341500   0.10058435    7.2185648    935723.24    935730.52   -404.02877 
 1342000   0.10030098    7.2196644    937283.65    937290.93   -405.41779 
 1342500   0.10011946    7.2197077    941474.54    941481.83   -406.52192 
 1343000   0.10027712    7.2209107    943276.46    943283.75   -405.21263 
 1343500   0.10034749    7.2197097    945543.02    945550.31   -404.79508 
 1344000   0.10004588    7.2206943    950003.62    950010.91   -406.52641 
 1344500   0.10063888    7.2214414    953571.89    953579.17   -404.18162 
 1345000    0.1004939    7.2223074    957955.56    957962.85   -404.79422 
 1345500   0.10016191    7.2221749    960635.39    960642.68   -406.36609 
 1346000   0.10045623    7.2217815    960947.53    960954.82   -404.95944 
 1346500   0.10026359    7.2206564    962725.08    962732.37   -403.40186 
 1347000   0.10025439    7.2185024    967300.43    967307.71   -404.43273 
 1347500    0.1001623    7.2193066    967300.39    967307.68   -406.45215 
 1348000   0.10032673    7.2183555    970110.07    970117.36   -403.19192 
 1348500   0.10053708    7.2197756    972480.65    972487.94   -403.68601 
 1349000   0.10044792    7.2216549    975430.68    975437.97    -405.0007 
 1349500  0.099806317    7.2216434    976582.94    976590.23   -408.08615 
 1350000   0.10037506    7.2191431     979704.2    979711.48   -406.70098 
 1350500   0.10027614    7.2209386    979704.19    979711.48    -405.1532 
 1351000   0.10008831    7.2202121    982136.97    982144.26   -404.94622 
 1351500   0.10021507    7.2223574    982670.12    982677.41   -401.14522 
 1352000   0.10018193    7.2246205    985380.88    985388.17   -405.80063 
 1352500   0.10007914     7.222999    987877.65    987884.94   -402.53323 
 1353000   0.10050594    7.2249513    987877.53    987884.82   -405.16401 
 1353500   0.10014543      7.22506    989293.95    989301.24   -403.74231 
 1354000   0.10063088     7.224889    991496.85    991504.14   -404.23819 
 1354500   0.10034986    7.2239124    994221.39    994228.68   -405.20195 
 1355000   0.10003249    7.2246259    995944.99    995952.28   -405.36324 
 1355500   0.10020773    7.2255461    995129.57    995136.86   -403.04648 
 1356000   0.10011415    7.2246999     994423.2    994430.49   -404.93164 
 1356500   0.10010172    7.2256963    994423.19    994430.48   -402.96071 
 1357000   0.10009051    7.2257786     992555.5    992562.79   -405.32431 
 1357500   0.10024914    7.2250299    992912.56    992919.85   -407.25456 
 1358000   0.10004382    7.2244813    992783.28    992790.57   -403.47668 
 1358500   0.10037999    7.2257054    992270.42    992277.72   -405.39389 
 1359000  0.099979792    7.2248318    991372.56    991379.86   -404.04251 
 1359500   0.10007307    7.2253507    988798.05    988805.35   -402.12332 
 1360000   0.10017665    7.2252055    986767.92    986775.21   -404.35795 
 1360500  0.099980166    7.2235849    984507.98    984515.27   -405.22695 
 1361000   0.10040971    7.2244689    982996.96    983004.25   -403.15598 
 1361500   0.10002851    7.2249906    980574.04    980581.34   -404.68034 
 1362000  0.099917058    7.2245306    980574.01    980581.31   -403.17079 
 1362500   0.09999084    7.2254942    975079.83    975087.12   -407.31997 
 1363000  0.099860112    7.2219293    972584.82     972592.1   -404.97078 
 1363500   0.10029067    7.2224024    972584.77    972592.06   -404.56463 
 1364000   0.10018234    7.2233106    968851.39    968858.68   -403.62872 
 1364500   0.10011606    7.2223318    964673.97    964681.26   -404.82329 
 1365000   0.10032943    7.2223464    961418.18    961425.47   -407.49116 
 1365500   0.10042076    7.2220043    957297.51     957304.8     -402.388 
 1366000   0.10021741    7.2221074     953624.9    953632.19     -407.719 
 1366500   0.10040559    7.2222185    953624.89    953632.18    -405.1054 
 1367000   0.10044863    7.2237252    949764.03    949771.33   -403.66051 
 1367500  0.099809404    7.2240441     945795.7    945802.99   -404.24006 
 1368000   0.10047037    7.2234484    941462.34    941469.63   -405.16457 
 1368500  0.099949729    7.2217506    937777.19    937784.48   -405.45532 
 1369000   0.10068074    7.2208219    935632.45    935639.74   -404.60972 
 1369500   0.10008248    7.2207656    935632.43    935639.72   -403.34743 
 1370000   0.10029288    7.2204885    932773.78    932781.06   -405.09947 
 1370500   0.10016529    7.2202431    931263.36    931270.64   -404.65877 
 1371000   0.10030905    7.2193721    927669.34    927676.63   -405.65015 
 1371500   0.10036203    7.2206789    926229.76    926237.04   -405.01745 
 1372000   0.10056808    7.2211537    925171.65    925178.94   -404.00403 
 1372500   0.10048294    7.2206655    924059.84    924067.13   -403.21994 
 1373000  0.099998128    7.2190562    923256.61     923263.9   -404.39067 
 1373500   0.10079415    7.2209448    922145.02    922152.31   -404.69573 
 1374000  0.099735399    7.2194274    921854.36    921861.64   -404.63439 
 1374500   0.10005888    7.2196042    920554.97    920562.25   -406.63847 
 1375000   0.10010045    7.2187033    920554.94    920562.22   -403.34101 
 1375500   0.10003829    7.2177354    922035.87    922043.15   -403.42371 
 1376000   0.10015332    7.2173086    921691.52     921698.8   -406.14964 
 1376500  0.099991254    7.2179638    922021.24    922028.52   -404.31386 
 1377000   0.10066284    7.2190355    922021.36    922028.65   -403.13397 
 1377500   0.10012531    7.2184652    922939.97    922947.25   -405.39402 
 1378000   0.10066838    7.2174237    925364.76    925372.05   -403.61943 
 1378500   0.10042738    7.2169239    926133.56    926140.84   -405.45399 
 1379000    0.1003914    7.2180013    927964.67    927971.95   -403.22309 
 1379500   0.10047821    7.2185811    931478.92     931486.2   -405.23953 
 1380000   0.10035729    7.2190815    933688.52     933695.8   -402.77842 
 1380500  0.099894206     7.219522     936689.8    936697.08   -404.08057 
 1381000   0.10037022    7.2199607    936689.76    936697.05   -404.80541 
 1381500   0.10001505    7.2209834     939479.4    939486.68   -403.26593 
 1382000   0.10065889    7.2214274     941387.7    941394.99   -406.05765 
 1382500    0.1001271    7.2206559    944397.12    944404.41   -403.53564 
 1383000   0.10024902    7.2195466    947543.29    947550.57   -404.33463 
 1383500   0.10037492    7.2206827    947543.34    947550.63   -405.04832 
 1384000   0.10064926    7.2209359    949878.14    949885.42   -404.04309 
 1384500  0.099842993    7.2196389    952818.01     952825.3   -404.22446 
 1385000   0.10024434    7.2174963    954277.54    954284.83   -406.33514 
 1385500   0.10029687    7.2171869    957214.23    957221.51   -406.22876 
 1386000   0.10010434    7.2169505    959475.79    959483.08   -403.97833 
 1386500   0.10049213    7.2163269    959475.62     959482.9   -405.01157 
 1387000   0.10017975    7.2173342    962086.02     962093.3    -407.2258 
 1387500   0.10039321     7.218033    964996.51     965003.8   -405.11979 
 1388000  0.099762401      7.21785    966753.53    966760.82    -405.2092 
 1388500     0.100465    7.2156647    966753.47    966760.75   -404.67604 
 1389000   0.10054435    7.2153176    967014.48    967021.76   -405.27465 
 1389500   0.10037896    7.2151879    966843.83    966851.11   -405.95125 
 1390000   0.10027772    7.2147012    967548.15    967555.43   -405.68803 
 1390500   0.10031269    7.2159456    969271.99    969279.27   -404.31777 
 1391000   0.10001212    7.2148647    969271.97    969279.25   -405.14573 
 1391500   0.10076883    7.2146716    969880.57    969887.85   -408.03461 
 1392000   0.10082886    7.2160678    971099.28    971106.57   -405.12563 
 1392500   0.10024726    7.2156532    971038.47    971045.76   -406.45768 
 1393000   0.10012876    7.2166379    971131.38    971138.67   -405.18812 
 1393500   0.10014256     7.219062    968480.94    968488.22   -402.30649 
 1394000   0.10034445    7.2194816    968480.77    968488.06   -405.80656 
 1394500   0.10065847    7.2191074    968570.72    968578.01   -405.46948 
 1395000   0.10015686     7.218302    967211.52    967218.81   -408.11183 
 1395500   0.10063044    7.2185466    966937.26    966944.55   -407.00005 
 1396000   0.10021968    7.2168335    965411.44    965418.73   -404.03437 
 1396500   0.10036874    7.2160465    965145.55    965152.84   -404.59684 
 1397000  0.099637864    7.2165182    965145.48    965152.76   -405.58833 
 1397500   0.10000229     7.215565    963818.82     963826.1   -408.33252 
 1398000   0.10036624    7.2171715     960941.9    960949.19   -405.01508 
 1398500   0.10012905    7.2150912    960655.54    960662.82   -404.91753 
 1399000   0.10033866     7.214675    958274.55    958281.83   -401.36962 
 1399500   0.10012471    7.2163347    956408.54    956415.82   -402.13471 
 1400000   0.10036122    7.2166594    954932.08    954939.36   -404.16524 
 1400500   0.10032158    7.2148074    954932.08    954939.36   -406.38441 
 1401000  0.099851847    7.2159745    953107.67    953114.95   -406.36018 
 1401500   0.10024347    7.2155892    950201.42     950208.7   -405.27987 
 1402000   0.10011708    7.2149178    950201.33    950208.61   -401.52671 
 1402500   0.10060655    7.2164754    948540.85    948548.13   -404.24418 
 1403000   0.10046684    7.2148767    946244.36    946251.64   -403.96802 
 1403500    0.1004905    7.2150249    943943.53    943950.81   -404.82965 
 1404000   0.10006747    7.2155494    940102.68    940109.96    -405.7082 
 1404500   0.10028339     7.215052    936894.81    936902.09   -403.63674 
 1405000   0.10041588    7.2152958    936894.85    936902.14   -404.64066 
 1405500   0.10012365    7.2162352    934247.77    934255.05   -406.76047 
 1406000    0.1002037    7.2158282    932178.41    932185.69   -404.21407 
 1406500   0.10044381    7.2158561    931532.73    931540.02   -405.31758 
 1407000   0.10029139    7.2173334    929766.65    929773.93   -402.69792 
 1407500   0.10034164    7.2182789    928134.89    928142.18   -403.89756 
 1408000   0.10044559    7.2164843    928134.81    928142.09   -404.54766 
 1408500   0.10052139    7.2174496    926660.34    926667.62   -403.80712 
 1409000   0.10013835    7.2169867    926055.58    926062.87   -403.02834 
 1409500    0.1002773    7.2174784    926102.34    926109.63   -406.57484 
 1410000   0.10042429    7.2184125    925554.39    925561.67   -404.89678 
 1410500   0.10011772    7.2203511    924201.88    924209.17   -405.03862 
 1411000   0.10034799    7.2197652    922289.51     922296.8   -405.46258 
 1411500   0.10062203    7.2200973     922289.5    922296.78   -404.64138 
 1412000   0.10050639    7.2212697     919849.6    919856.89   -404.26282 
 1412500   0.10012244    7.2222551     919219.9    919227.19   -406.04994 
 1413000     0.100514    7.2244445    916698.36    916705.65    -404.7135 
 1413500   0.10007165    7.2247738    912477.55    912484.84   -404.28503 
 1414000  0.099870075    7.2260073    909945.54    909952.83   -403.77453 
 1414500   0.10080952    7.2266802    909945.63    909952.92   -406.41776 
 1415000   0.10010626     7.227745     906804.4    906811.69   -406.18317 
 1415500   0.10067276    7.2252702    902589.56    902596.85   -404.23188 
 1416000   0.10022593     7.225906    902589.61    902596.91   -404.46619 
 1416500   0.10031437     7.226004    901061.38    901068.67   -404.55984 
 1417000   0.10036549    7.2270448     899513.4     899520.7    -405.6027 
 1417500   0.10027241    7.2284864    897023.05    897030.35   -405.49713 
 1418000   0.10064982    7.2291621    894847.63    894854.92   -404.39463 
 1418500   0.10053686    7.2285022    894806.55    894813.85   -404.09315 
 1419000   0.10014932    7.2286526    892173.27    892180.56   -404.23235 
 1419500   0.10023202    7.2285177    890504.35    890511.64   -406.45183 
 1420000   0.09974944    7.2290387    888662.36    888669.66   -403.33273 
 1420500   0.10047177    7.2297246    887656.19    887663.48   -403.61129 
 1421000   0.10022642    7.2293797    886882.89    886890.19    -403.5207 
 1421500   0.10042865    7.2280865    886882.68    886889.98   -406.85459 
 1422000   0.10065423    7.2301846    885869.25    885876.55   -404.20224 
 1422500   0.10010218    7.2282035    885262.11     885269.4   -406.61076 
 1423000   0.10023823    7.2298592    885389.76    885397.05   -404.72767 
 1423500  0.099837349    7.2304941     884673.4    884680.69   -404.55686 
 1424000   0.10058438    7.2304942    883826.87    883834.17   -405.84733 
 1424500   0.10003883    7.2293422    884522.88    884530.18   -403.56534 
 1425000   0.10019454    7.2307395    883563.45    883570.74   -405.93762 
 1425500   0.10006781    7.2318101    885777.95    885785.25   -406.02445 
 1426000   0.10040758    7.2294547    885777.97    885785.26   -402.81496 
 1426500  0.099876407    7.2307814    887546.72    887554.01   -405.94801 
 1427000    0.1003407    7.2317652    889887.55    889894.85   -403.47647 
 1427500   0.10001602    7.2300484    892067.86    892075.16   -406.03581 
 1428000    0.1004543    7.2314038    895326.34    895333.64   -403.81365 
 1428500   0.10036272    7.2318709    898793.22    898800.52   -403.65862 
 1429000   0.10012366    7.2304226    898793.27    898800.57   -405.59397 
 1429500   0.10052902    7.2295973    902772.12    902779.41   -405.23887 
 1430000   0.10032776    7.2288078    906370.93    906378.22   -404.77375 
 1430500   0.10006544    7.2287329    910492.74    910500.03   -406.33423 
 1431000  0.099971495    7.2271578     914699.6    914706.89   -403.60602 
 1431500    0.1006512    7.2291301    919356.59    919363.89   -405.05566 
 1432000   0.10050586    7.2288402    924301.26    924308.56    -403.1944 
 1432500   0.10026551    7.2272513       925084    925091.29   -405.59971 
 1433000   0.10011638    7.2284031     928402.1     928409.4    -406.0557 
 1433500   0.10008615    7.2267201    934187.36    934194.65   -403.36111 
 1434000   0.10024753    7.2278743    938806.62    938813.92   -405.59143 
 1434500  0.099928408    7.2269508     943975.3    943982.59   -407.61469 
 1435000   0.10012001    7.2257424     950982.1     950989.4   -403.33433 
 1435500   0.10063853     7.226023    950982.05    950989.35   -401.50972 
 1436000   0.10029154    7.2253631    955301.42    955308.71     -402.537 
 1436500   0.10059936    7.2281662    961115.29    961122.58   -403.01183 
 1437000   0.10027737    7.2278694    968607.11     968614.4   -404.49257 
 1437500   0.10065429    7.2285362    968606.94    968614.24   -404.92715 
 1438000   0.10046243    7.2294698    974110.64    974117.94   -408.16485 
 1438500   0.10015104    7.2288581    978441.63    978448.93   -404.37019 
 1439000  0.099889357    7.2299215    982871.89    982879.18   -404.65352 
 1439500   0.10017494    7.2306269       987029     987036.3   -407.66012 
 1440000   0.10050962    7.2309033     991092.7    991099.99   -405.44077 
 1440500   0.10002928    7.2320905    991092.78    991100.08   -403.24777 
 1441000   0.10023457    7.2329436    993267.56    993274.86   -405.21518 
 1441500   0.10064852    7.2318913    994675.95    994683.25   -406.82322 
 1442000   0.10036711    7.2310158    995588.46    995595.75   -404.03521 
 1442500   0.10036224    7.2312371    994854.68    994861.98     -403.291 
 1443000    0.1001132    7.2314882    994714.77    994722.07   -405.66137 
 1443500   0.10049898    7.2324505    993574.43    993581.73   -402.49399 
 1444000   0.10010678     7.232221    992871.58    992878.88   -405.32796 
 1444500   0.10088928     7.232536    992871.51    992878.81   -403.85571 
 1445000   0.10012464    7.2319123    991309.29    991316.59   -406.20325 
 1445500   0.10082211    7.2317983    989841.72    989849.02   -401.07121 
 1446000   0.10029901    7.2333895    986119.01    986126.31   -402.59656 
 1446500   0.10017108    7.2311549    983274.43    983281.73   -406.15472 
 1447000   0.10002571    7.2316168    980124.85    980132.15   -402.36282 
 1447500   0.09988721    7.2308606    977978.61    977985.91   -404.84385 
 1448000   0.10053163    7.2321031    975220.39    975227.69   -403.89945 
 1448500   0.10012393    7.2315805    972474.54    972481.84   -405.62751 
 1449000   0.10037073    7.2314357    970035.34    970042.64   -404.41572 
 1449500   0.10007688    7.2317034    970035.36    970042.66   -406.05084 
 1450000   0.10019079    7.2297457    965847.47    965854.77   -404.72945 
 1450500   0.10035826    7.2293295    965847.46    965854.76   -405.72691 
 1451000   0.10026021    7.2290718    961370.26    961377.55   -403.28212 
 1451500  0.099804336    7.2295392    956959.04    956966.34   -407.36842 
 1452000   0.10031486    7.2309233    954410.55    954417.84   -405.25642 
 1452500   0.10034571    7.2297992    951564.04    951571.34    -407.2856 
 1453000   0.10012242    7.2313606    949359.47    949366.77   -403.98479 
 1453500   0.10030091    7.2314289    947003.65    947010.95   -405.24666 
 1454000   0.10012744    7.2309573    947003.56    947010.86   -405.29984 
 1454500   0.10078908    7.2319341    945784.43    945791.73   -403.79638 
 1455000   0.10037093    7.2324319    944983.74    944991.04   -406.00565 
 1455500   0.10065426    7.2312291    944139.15    944146.45    -405.0773 
 1456000   0.10045545    7.2303796    944891.67    944898.97   -404.25519 
 1456500  0.099909364    7.2312977    943405.33    943412.63   -404.32847 
 1457000   0.10040444    7.2320622    943405.39    943412.69   -406.72216 
 1457500   0.10025858    7.2328337    943957.36    943964.66   -405.54795 
 1458000    0.1004023     7.232266    944437.03    944444.33   -402.15559 
 1458500   0.10021093    7.2334228    944723.46    944730.76    -405.3615 
 1459000   0.10032908    7.2339347    946979.21    946986.51   -404.77615 
 1459500   0.10012512    7.2316578    946863.32    946870.61   -405.96026 
 1460000   0.10046034    7.2323788    946610.87    946618.17   -404.13532 
 1460500   0.10031741    7.2345725    947413.47    947420.77   -403.37347 
 1461000   0.10057955    7.2327918    948159.68    948166.98   -405.48235 
 1461500   0.10009963    7.2321078    948159.59    948166.89    -402.6175 
 1462000   0.10040213    7.2324059    948797.52    948804.82   -404.96893 
 1462500   0.10009356     7.232126    949578.47    949585.77   -406.28919 
 1463000   0.10037327    7.2325702    950940.74    950948.04   -404.41254 
 1463500   0.10028335    7.2331833    952521.15    952528.45   -404.86613 
 1464000  0.099881046    7.2323717    953570.18    953577.48   -404.91111 
 1464500   0.10017558    7.2335358    954334.11    954341.41   -404.40584 
 1465000   0.10021945    7.2349847    955843.15    955850.45   -405.56328 
 1465500   0.10042285    7.2340781    955843.05    955850.36   -404.03596 
 1466000    0.1001145    7.2331811    959956.48    959963.78   -404.59417 
 1466500   0.10028982     7.234468    961848.67    961855.98   -405.38723 
 1467000   0.10031277    7.2363021    964095.33    964102.63   -404.71082 
 1467500   0.10020832    7.2345868    964095.24    964102.54   -403.62231 
 1468000   0.10023172    7.2361136    964287.12    964294.42   -404.95353 
 1468500   0.10016085    7.2354643    964153.11    964160.41   -404.38362 
 1469000    0.1001393    7.2347145    963982.64    963989.94   -404.31126 
 1469500  0.099952801    7.2351844    962226.91    962234.21   -404.11437 
 1470000   0.10052192    7.2339093    962543.93    962551.23   -404.77271 
 1470500   0.10046855    7.2322754    962666.97    962674.27    -404.8093 
 1471000   0.10035769    7.2348134    962666.97    962674.27   -406.88513 
 1471500  0.099668676     7.234592    962720.72    962728.02   -402.78336 
 1472000  0.099894187    7.2324664    962483.92    962491.22   -405.27488 
 1472500   0.10032354    7.2319029    962483.82    962491.12   -403.47139 
 1473000   0.10052698    7.2328914    961729.69    961736.99   -403.28358 
 1473500   0.10028627    7.2323526    960950.81    960958.11   -402.98184 
 1474000   0.10028062    7.2325299    959524.05    959531.35   -406.59818 
 1474500   0.10023786    7.2311257    958931.63    958938.93    -408.8431 
 1475000  0.099998275    7.2315332    959012.56    959019.85   -406.87504 
 1475500    0.1004707    7.2312269    960258.36    960265.66    -403.2441 
 1476000   0.10004018    7.2303176     960258.4     960265.7   -407.02705 
 1476500    0.1002262    7.2293127    960232.28    960239.58     -404.343 
 1477000   0.10042479    7.2291032    958791.84    958799.14   -406.03459 
 1477500    0.1005901    7.2301475    956343.11    956350.41   -404.84497 
 1478000  0.099666453    7.2304567    955973.29    955980.59   -405.54035 
 1478500   0.10026179    7.2303918    955973.34    955980.63   -404.61407 
 1479000   0.10057674    7.2296975    954164.82    954172.11   -403.62836 
 1479500   0.10040383    7.2300766    951624.46    951631.76   -406.00682 
 1480000  0.099991314     7.231545    950300.28    950307.58   -402.22712 
 1480500  0.099778131    7.2342405    946872.17    946879.48   -403.29794 
 1481000   0.10045338    7.2309005    944967.14    944974.43   -405.34482 
 1481500   0.10037709    7.2327329    945280.89    945288.19   -405.11632 
 1482000   0.10001173    7.2331661    945280.96    945288.26   -402.94784 
 1482500   0.10026196    7.2321766    944172.47    944179.77    -406.6457 
 1483000   0.10019731    7.2329482    943796.44    943803.74   -403.73373 
 1483500   0.10008948    7.2320802    943024.59    943031.89   -404.84707 
 1484000   0.10041936    7.2317181    943238.53    943245.83    -404.6934 
 1484500  0.099802751    7.2305738    942775.41    942782.71   -405.13612 
 1485000   0.10066817    7.2305855    942775.39    942782.69   -406.10698 
 1485500   0.10009094    7.2295886    943494.33    943501.63    -403.4038 
 1486000   0.10043381    7.2292595    943494.37    943501.67    -404.6372 
 1486500   0.10014004    7.2291149    944944.68    944951.97   -404.55693 
 1487000    0.1000259    7.2288988    945369.62    945376.91   -406.09319 
 1487500   0.10023259    7.2286577    946631.78    946639.07   -404.50134 
 1488000    0.1002319    7.2293515     948087.8    948095.09   -402.43975 
 1488500   0.10032488    7.2284681    948900.88    948908.17   -404.39623 
 1489000   0.10044904    7.2282224    949918.37    949925.67   -404.56178 
 1489500   0.10003713    7.2274165    951238.47    951245.76   -405.49356 
 1490000   0.10001352     7.227019     951852.8    951860.09    -404.9094 
 1490500   0.10064416    7.2269479    951852.92    951860.22   -404.27996 
 1491000   0.10037384     7.225597    951795.54    951802.83   -401.73771 
 1491500   0.10012967    7.2268471    951029.41     951036.7   -402.97799 
 1492000     0.100062    7.2263906    952264.21     952271.5   -406.71588 
 1492500  0.099593675    7.2262573    954416.28    954423.57   -402.78717 
 1493000   0.10064184    7.2270112    955196.57    955203.86   -404.96185 
 1493500   0.10026466    7.2247481    955196.61     955203.9   -406.50218 
 1494000   0.10047833     7.225833    956949.06    956956.36   -405.52457 
 1494500   0.10047681    7.2259644    958536.24    958543.53   -403.71204 
 1495000   0.10042828    7.2243009    958548.62    958555.91   -403.78523 
 1495500   0.10024468    7.2243403    959601.97    959609.26   -406.53693 
 1496000   0.10034912    7.2247389     959936.2    959943.49   -403.48533 
 1496500   0.10018747    7.2230669    959754.46    959761.75   -404.67555 
 1497000  0.099962447    7.2213366    959878.14    959885.42   -406.20634 
 1497500   0.09986312    7.2212474    959767.32    959774.61   -406.28968 
 1498000   0.10028131    7.2214169    959767.38    959774.67   -403.69157 
 1498500   0.10059785    7.2216552     960957.7    960964.99   -403.51401 
 1499000   0.10004076     7.219571    962135.41    962142.69   -403.56123 
 1499500    0.1000822    7.2200385    963741.18    963748.47   -405.51698 
 1500000   0.10054294    7.2185856    963240.91    963248.19   -404.24658 
 1500500   0.10047483    7.2176168    963240.94    963248.22     -407.473 
 1501000  0.099984404     7.216923    962192.06    962199.34   -406.15759 
 1501500   0.10018803    7.2165198    960405.17    960412.45   -405.13273 
 1502000   0.10017932     7.215201    960570.42     960577.7   -405.85218 
 1502500   0.10010408    7.2159259    959792.64    959799.92   -404.51929 
 1503000   0.10006701    7.2145911    958773.76    958781.04   -405.09049 
 1503500   0.10044432    7.2163657    958773.66    958780.94   -405.16994 
 1504000  0.099778348    7.2168602    958177.59    958184.87   -404.90623 
 1504500   0.10010618    7.2180761    957201.03    957208.31   -403.26859 
 1505000   0.10048049    7.2188337    956314.84    956322.13   -405.73179 
 1505500   0.10006428    7.2194576    953636.91     953644.2   -405.05853 
 1506000  0.099977041    7.2197067    953636.88    953644.16   -405.51521 
 1506500   0.10017971     7.219094    951990.87    951998.16   -406.56756 
 1507000   0.10025713    7.2195917    951990.91    951998.19   -404.40007 
 1507500   0.10054049    7.2203004     949855.8    949863.09   -403.07604 
 1508000   0.10032802    7.2212776    949190.32    949197.61   -403.84918 
 1508500   0.10029004    7.2208299    944328.06    944335.34   -403.95634 
 1509000    0.1003991    7.2189584     944057.5    944064.79     -405.588 
 1509500   0.10020078    7.2193167    942445.83    942453.11   -404.78553 
 1510000   0.10016215     7.221227    942445.79    942453.08   -405.18866 
 1510500   0.10027343    7.2191868    940683.38    940690.66   -405.74556 
 1511000  0.099932608    7.2194872    938370.31    938377.59   -406.70074 
 1511500    0.1003164    7.2208626     936840.3    936847.59    -405.2566 
 1512000   0.10041916    7.2196666    936204.27    936211.56   -406.71508 
 1512500    0.1000217    7.2199085    935857.62     935864.9   -403.93992 
 1513000   0.10048194    7.2201341    934922.34    934929.63   -407.48213 
 1513500   0.10024704    7.2200697    934922.41    934929.69   -404.62727 
 1514000   0.10020135    7.2199635    935330.01     935337.3   -404.21502 
 1514500   0.10037576     7.219502    935330.12     935337.4   -401.29743 
 1515000   0.10040849    7.2194452    935152.72       935160   -407.28937 
 1515500   0.10048036    7.2178801    935219.13    935226.41   -403.46326 
 1516000   0.10034934    7.2179365    934260.52    934267.81   -405.15767 
 1516500   0.10041137    7.2189935    932843.03    932850.31   -407.09108 
 1517000   0.10053671    7.2207786    933416.12    933423.41   -403.26609 
 1517500    0.1000177    7.2192375    933169.07    933176.36   -403.35955 
 1518000   0.10010582    7.2189841    932344.35    932351.64   -403.25395 
 1518500  0.099984523    7.2210284    933447.35    933454.64   -403.78401 
 1519000   0.10014027    7.2226811    933409.13    933416.42   -403.64852 
 1519500   0.10047798    7.2216278     934230.7    934237.99   -405.61565 
 1520000     0.100169     7.222016    934230.69    934237.98   -404.70301 
 1520500   0.09998179     7.219893    934093.47    934100.75   -406.65939 
 1521000  0.099767684    7.2187909    933513.52     933520.8   -406.42078 
 1521500   0.10036023    7.2207719    933236.82    933244.11   -402.92115 
 1522000   0.10016856    7.2204909    931367.07    931374.36   -407.53746 
 1522500   0.10022519    7.2189749    929364.23    929371.52   -406.44182 
 1523000  0.099681803    7.2198923    929364.24    929371.53   -406.58531 
 1523500   0.10016205    7.2216119     928173.5    928180.79   -403.89069 
 1524000   0.10002469    7.2212243    925548.67    925555.96   -404.00361 
 1524500   0.10028316    7.2222988    924565.66    924572.95   -405.16895 
 1525000   0.10019816    7.2208147    924853.42    924860.71   -405.62893 
 1525500  0.099950959    7.2227041    923803.45    923810.74    -405.8505 
 1526000   0.10055361    7.2230349    922272.58    922279.87    -405.0432 
 1526500   0.10043508    7.2223979    921601.05    921608.34   -405.31611 
 1527000   0.10018018     7.224141    921601.14    921608.43   -405.45396 
 1527500   0.10022047    7.2268986    920030.37    920037.66   -406.44753 
 1528000   0.10010478     7.226297    917503.03    917510.32   -405.46458 
 1528500   0.10022898    7.2278571    917142.64    917149.93   -406.20458 
 1529000   0.10007268     7.229562    915252.81    915260.11   -404.81785 
 1529500   0.10042287     7.227509     913100.6    913107.89    -405.0678 
 1530000   0.10019256    7.2295313    913100.65    913107.95    -404.5319 
 1530500   0.10035317    7.2285264     912139.3     912146.6   -403.88643 
 1531000   0.10043339    7.2282709    911240.53    911247.83   -405.63543 
 1531500   0.10003489    7.2282784    911240.57    911247.86   -406.09234 
 1532000   0.10010803    7.2289672    911206.75    911214.05   -405.40319 
 1532500   0.09999955    7.2305176    910909.06    910916.35   -403.66335 
 1533000   0.10025683    7.2313683    911118.74    911126.04    -402.0946 
 1533500   0.10039161    7.2316186    911085.09    911092.39    -405.7323 
 1534000   0.10018443    7.2321224    909427.24    909434.54   -406.82628 
 1534500   0.10048045    7.2320768    909099.64    909106.94   -402.06683 
 1535000  0.099901397    7.2322378    910096.06    910103.36   -404.50572 
 1535500   0.10002714      7.23313    909891.11    909898.41   -405.04818 
 1536000   0.10035072     7.232664    910207.96    910215.25    -403.6451 
 1536500   0.10011399    7.2334166    909840.63    909847.93   -405.21393 
 1537000   0.10024812    7.2345826    910001.03    910008.33   -407.15757 
 1537500   0.10035729    7.2351594    910920.12    910927.43   -404.70985 
 1538000    0.1005972    7.2349126    911207.99    911215.29   -403.21802 
 1538500   0.10067825     7.233454    911207.98    911215.28   -409.00031 
 1539000   0.10001964    7.2328454    912868.66    912875.96   -403.89873 
 1539500   0.09972152    7.2339108    913452.64    913459.94    -407.5784 
 1540000   0.10071758    7.2335257    915360.62    915367.92   -403.31537 
 1540500   0.10029299    7.2349413     915795.7       915803     -404.563 
 1541000  0.099984995    7.2354132    918412.82    918420.12   -407.31736 
 1541500  0.099853848    7.2341411    920652.97    920660.27   -408.57788 
 1542000   0.10061997    7.2336621    920653.03    920660.33   -405.91243 
 1542500   0.10034256    7.2361466    921181.73    921189.04   -405.22945 
 1543000   0.10003311    7.2367477    921814.28    921821.59   -405.48219 
 1543500   0.10021469     7.238509    922806.01    922813.31   -404.30651 
 1544000   0.10011397    7.2395296    924916.61    924923.92   -404.58365 
 1544500   0.10045767    7.2397441    926023.25    926030.56   -404.10487 
 1545000  0.099740571    7.2408673    926023.14    926030.45   -402.58555 
 1545500   0.10014068    7.2395645    927134.54    927141.85   -404.63083 
 1546000   0.10013968    7.2401547    926727.68    926734.99   -400.73999 
 1546500  0.099918894    7.2418068    926446.23    926453.54   -405.49408 
 1547000   0.10011332    7.2433877     926446.2    926453.51   -406.09081 
 1547500    0.1003878    7.2410162    924642.78    924650.09   -404.71279 
 1548000  0.099938808    7.2423765    922654.36    922661.67   -406.02367 
 1548500   0.10009559    7.2431676    922982.91    922990.22   -405.40659 
 1549000   0.10025072     7.241825    922982.91    922990.22   -404.13857 
 1549500  0.099863116    7.2414779    922490.09     922497.4   -402.86253 
 1550000   0.10042976    7.2399364    920582.32    920589.63   -406.62816 
 1550500   0.10019019     7.240628    920582.34    920589.64   -405.06455 
 1551000  0.099814191    7.2394465    919585.34    919592.64   -403.96641 
 1551500   0.10048982    7.2399537    918404.54    918411.85   -405.85274 
 1552000   0.10000692    7.2409328    916770.03    916777.34   -403.96441 
 1552500   0.10015465    7.2403669    914897.45    914904.76   -404.35193 
 1553000   0.10010986    7.2400013    914880.15    914887.45   -403.80158 
 1553500  0.099664266    7.2391405    913998.45    914005.76   -406.57102 
 1554000   0.10033976     7.239371    914199.51    914206.81   -404.35568 
 1554500   0.10042757    7.2380049    914199.62    914206.93   -404.12246 
 1555000   0.10003017    7.2366627    914555.53    914562.83   -406.48564 
 1555500  0.099847309    7.2358171    914592.06    914599.36    -405.8836 
 1556000   0.10009519    7.2364281    915657.05    915664.35   -402.94575 
 1556500   0.10027246    7.2369643     915646.2    915653.51   -404.71459 
 1557000   0.10049853    7.2344821    916715.43    916722.74   -405.72267 
 1557500   0.10035627    7.2332864    916715.46    916722.76   -404.77119 
 1558000   0.10039579    7.2346228    916918.22    916925.52   -402.40411 
 1558500   0.10020221    7.2355939    917520.24    917527.54   -406.79872 
 1559000   0.10000978    7.2352062    920715.84    920723.14   -403.59971 
 1559500   0.10003144     7.235041    923258.45    923265.75   -407.32508 
 1560000   0.10028342    7.2349127    924117.28    924124.58   -406.50326 
 1560500   0.10020756    7.2352168    924117.37    924124.67   -404.98102 
 1561000  0.099903194    7.2344736    927044.48    927051.78   -406.43914 
 1561500    0.1004564    7.2354179    927044.34    927051.64   -406.04232 
 1562000   0.10023049    7.2355238     927914.7       927922   -404.27768 
 1562500   0.10036611    7.2365861    928432.39    928439.69    -404.6553 
 1563000   0.10065621    7.2370724    928432.36    928439.66    -405.1233 
 1563500   0.10055103    7.2367983    928956.32    928963.62   -403.71101 
 1564000   0.10040696    7.2376993    929684.71    929692.01   -404.28504 
 1564500   0.10023477    7.2374342    930230.23    930237.53   -404.26075 
 1565000   0.10012514    7.2373591    932436.46    932443.77   -404.30801 
 1565500   0.10029809     7.238184     932436.8     932444.1   -403.09979 
 1566000    0.1002871    7.2363823    935338.13    935345.44   -404.43179 
 1566500   0.10061543    7.2357255    937671.37    937678.67   -407.23365 
 1567000   0.09989482    7.2365366    939812.31    939819.62   -404.79993 
 1567500   0.10001209    7.2343585    941710.69    941717.99   -405.34567 
 1568000   0.10047244    7.2338115    944592.58    944599.88   -404.01975 
 1568500  0.099948536    7.2334398    946974.47    946981.77   -404.78245 
 1569000    0.1000607    7.2337909    946974.47    946981.77   -403.49082 
 1569500   0.10025694    7.2358865    948259.13    948266.43   -406.09009 
 1570000  0.099885614    7.2362913    950041.36    950048.66   -405.40996 
 1570500   0.10022054    7.2369946    951434.93    951442.23   -405.75142 
 1571000   0.09998978    7.2370528    951435.04    951442.35   -401.12764 
 1571500   0.10008698    7.2353653     952969.8     952977.1   -403.03962 
 1572000   0.10022055    7.2337029    953973.84    953981.14   -402.62672 
 1572500  0.099945148    7.2340135     952932.3     952939.6   -405.36373 
 1573000   0.10007519    7.2311869     953785.4     953792.7   -404.82292 
 1573500   0.10035569    7.2313001    952668.48    952675.78    -405.0169 
 1574000   0.10029115    7.2312593    952805.99    952813.29    -405.3284 
 1574500   0.09985765    7.2306414    952606.82    952614.12   -402.32714 
 1575000   0.10012341     7.230905     951384.5     951391.8   -403.83128 
 1575500   0.10048256    7.2295053    951329.38    951336.68   -405.50836 
 1576000   0.10009017    7.2288764    950138.96    950146.26   -406.99934 
 1576500   0.10058786    7.2271594    948272.54    948279.83   -405.82945 
 1577000   0.10008126    7.2271615    948272.59    948279.89   -406.64443 
 1577500   0.10035631    7.2251074     946754.1    946761.39   -406.27352 
 1578000   0.10057142    7.2255276    945054.14    945061.43    -405.4572 
 1578500   0.10059528    7.2236288    945016.01     945023.3   -403.53537 
 1579000  0.099903666    7.2256923    943876.55    943883.85   -406.75248 
 1579500  0.099985706    7.2241209    943549.22    943556.51   -405.93084 
 1580000   0.10017612     7.224159     943549.2    943556.49   -402.70552 
 1580500   0.10015572    7.2248238    941749.81    941757.11   -403.50815 
 1581000  0.099983562    7.2258682    939923.79    939931.08   -404.25154 
 1581500   0.10038472    7.2239395     939242.9    939250.19   -403.44734 
 1582000  0.099952607    7.2225407    936871.84    936879.13   -405.49894 
 1582500   0.10008669    7.2222696    935183.84    935191.13   -404.21342 
 1583000   0.10029164    7.2214758    935183.88    935191.17   -406.98786 
 1583500    0.1002883    7.2208466    931759.26    931766.55   -402.14416 
 1584000   0.10005594    7.2200418    931491.64    931498.93    -405.3572 
 1584500   0.10004516    7.2198479    929519.68    929526.97   -404.23558 
 1585000   0.10030239    7.2202474    928067.05    928074.34   -404.95884 
 1585500   0.10014988    7.2224618    926536.29    926543.58   -403.09005 
 1586000   0.10030377    7.2214574    926536.38    926543.67   -403.82583 
 1586500   0.10047312    7.2222495    925134.24    925141.53   -403.41188 
 1587000   0.10036052    7.2238646    923338.75    923346.04   -403.47971 
 1587500   0.10037752    7.2242385    922931.27    922938.56   -406.36071 
 1588000   0.10040029    7.2232872    921859.37    921866.66   -404.79902 
 1588500   0.10048027    7.2227684    921506.14    921513.43   -403.17494 
 1589000   0.10026553    7.2243035    921506.09    921513.38   -405.16646 
 1589500   0.10022921    7.2247942    921833.61     921840.9   -406.99243 
 1590000   0.10043167    7.2234859     922201.1    922208.39   -404.46014 
 1590500    0.1003348    7.2246258    920306.77    920314.06   -405.19296 
 1591000   0.10015247     7.224756     920877.8     920885.1    -404.3776 
 1591500   0.10019677     7.225053    920968.11     920975.4   -403.74891 
 1592000   0.10009557     7.226138    920968.11     920975.4   -404.80724 
 1592500   0.10014934    7.2249669       922183    922190.29   -404.09105 
 1593000   0.10031796    7.2246648    922372.28    922379.57   -400.82939 
 1593500   0.10068414    7.2234813     922882.8    922890.09   -405.94806 
 1594000   0.10024064    7.2255987    924663.67    924670.97   -406.92247 
 1594500   0.10020357    7.2255719    927080.12    927087.41   -405.32762 
 1595000   0.10015093    7.2249715    927080.09    927087.38   -404.08077 
 1595500  0.099922618    7.2269903    927697.51    927704.81   -405.34477 
 1596000   0.10048368    7.2273836     929004.2    929011.49   -408.92375 
 1596500   0.10033327    7.2285356    929221.86    929229.15   -405.00906 
 1597000   0.10068871    7.2276324    931307.16    931314.45   -405.69128 
 1597500   0.10004975    7.2295622     933351.2     933358.5   -404.27187 
 1598000   0.10023878    7.2296239     932889.5     932896.8   -402.85987 
 1598500   0.10043015    7.2272836    932230.04    932237.34   -406.58248 
 1599000   0.10019407    7.2284477    930646.26    930653.55   -402.34259 
 1599500   0.10068784    7.2300206    930646.22    930653.51   -402.94398 
 1600000   0.10000464    7.2301582    928645.35    928652.64   -405.36385 
 1600500   0.10036426    7.2301649    928645.22    928652.52   -405.82445 
 1601000   0.10018949    7.2323531    927560.14    927567.44   -404.72372 
 1601500   0.10018114    7.2332173    926797.82    926805.12   -404.45416 
 1602000   0.10041269    7.2337253    926342.53    926349.83   -405.44137 
 1602500   0.10007937    7.2327786    925662.32    925669.62   -403.48499 
 1603000   0.10041288    7.2337733    924583.13    924590.43    -405.2441 
 1603500  0.099935982    7.2357593    921992.54    921999.85    -402.7511 
 1604000   0.10067264    7.2358018    920895.25    920902.55   -406.18235 
 1604500   0.10022013     7.234771     919793.1     919800.4   -404.23944 
 1605000   0.10067576    7.2346641       919793     919800.3    -404.8674 
 1605500    0.1005745    7.2361604     919787.3    919794.61    -404.7657 
 1606000  0.099763845    7.2345785    919787.26    919794.57   -402.25132 
 1606500   0.10064597    7.2351191    919555.77    919563.07   -404.23568 
 1607000   0.10044657    7.2363431    920784.79    920792.09   -405.47016 
 1607500   0.10005325    7.2346819    920878.29    920885.59   -406.00323 
 1608000   0.10001838    7.2340583     920515.8    920523.11   -405.59128 
 1608500   0.10017577    7.2341646    919483.17    919490.47   -406.81168 
 1609000   0.10020669    7.2349955    919483.14    919490.44   -405.28846 
 1609500   0.10015868    7.2350904    919799.82    919807.12   -405.24146 
 1610000   0.10062145    7.2356617    922216.39    922223.69   -401.65448 
 1610500   0.10031095    7.2386595    922258.59     922265.9    -406.0201 
 1611000  0.099575191    7.2370161    922563.26    922570.56   -404.18156 
 1611500   0.10026443     7.236317    923802.52    923809.82   -403.70264 
 1612000   0.10034701    7.2354369    923802.55    923809.85    -405.3643 
 1612500   0.10018872    7.2360032    925011.46    925018.77   -405.31522 
 1613000   0.10024938    7.2371331    926466.64    926473.94   -403.36123 
 1613500   0.10005384    7.2359324    927966.21    927973.52   -403.99242 
 1614000   0.10009986     7.235279    927966.16    927973.46   -405.83963 
 1614500   0.10034227    7.2363919    929869.81    929877.11   -403.54629 
 1615000     0.100229    7.2353431    930548.85    930556.16   -406.55501 
 1615500   0.10007544    7.2385903    930688.24    930695.55   -403.61803 
 1616000   0.10009602    7.2378113    931269.88    931277.18   -406.17069 
 1616500    0.1002432    7.2400585    931269.87    931277.17   -406.03832 
 1617000  0.099786484    7.2391483    932059.65    932066.96   -403.43827 
 1617500   0.10019097    7.2392199    933785.55    933792.85   -403.60107 
 1618000   0.10027321    7.2392591    935369.01    935376.32   -404.41911 
 1618500  0.099972415    7.2400263    936057.41    936064.71    -403.2372 
 1619000   0.10058947    7.2416295    935336.73    935344.04   -403.09634 
 1619500    0.1004639    7.2422232    937339.97    937347.28   -402.11507 
 1620000   0.10030548    7.2405168     938567.6    938574.91   -403.59584 
 1620500   0.10020037    7.2414126    938622.93    938630.24   -405.41263 
 1621000   0.10037017    7.2429527    938438.93    938446.24   -404.61596 
 1621500   0.10041583    7.2431272    939221.31    939228.62   -403.60797 
 1622000   0.10005382    7.2432807    939870.11    939877.42   -405.11624 
 1622500   0.10020989    7.2432192    939870.08    939877.39   -406.11283 
 1623000   0.10000177    7.2419645    940463.32    940470.63   -404.02875 
 1623500   0.10054644    7.2426755    941157.82    941165.13   -402.36601 
 1624000   0.10036774    7.2433177    941995.48    942002.79   -405.60047 
 1624500   0.10068088    7.2445845    944216.86    944224.17   -405.28873 
 1625000   0.10045237    7.2438995     945293.6    945300.91   -403.74784 
 1625500   0.10077627     7.245134    945710.32    945717.63   -403.85654 
 1626000    0.1000713     7.245045    945710.29     945717.6   -405.00611 
 1626500  0.099645388    7.2450585    946992.02    946999.33   -406.33546 
 1627000   0.10022208    7.2463119    947211.75    947219.07   -405.69138 
 1627500   0.10055588    7.2458787    947824.76    947832.08   -405.07735 
 1628000   0.10036162     7.245054    948990.46    948997.77   -403.79624 
 1628500   0.10046323    7.2454282    948558.77    948566.08   -406.57215 
 1629000   0.10011724    7.2442132    948558.83    948566.14   -404.06025 
 1629500   0.10032814    7.2444262    950395.02    950402.34   -405.95728 
 1630000   0.10018042     7.244541    949955.88    949963.19   -402.98928 
 1630500   0.10011653    7.2434642    948107.61    948114.92   -404.51758 
 1631000    0.1001858    7.2454213     947205.8    947213.11    -405.0967 
 1631500  0.099979349    7.2456208    946846.77    946854.08   -406.43428 
 1632000  0.099965519    7.2434449     946224.8    946232.11   -404.12209 
 1632500   0.10041236    7.2413058    945969.14    945976.44   -404.02123 
 1633000   0.10003563    7.2400716    946033.93    946041.24   -404.54146 
 1633500   0.10017357    7.2404472    945439.15    945446.46   -405.06818 
 1634000   0.10017867    7.2393269    944509.99     944517.3   -402.22849 
 1634500   0.10014035    7.2403132    945929.58    945936.88   -407.17991 
 1635000   0.10009246     7.242216    946944.88    946952.19   -403.50198 
 1635500   0.10017854    7.2438585    946944.86    946952.17   -401.85261 
 1636000   0.10017499    7.2443126    947391.04    947398.35   -404.00974 
 1636500    0.1002106    7.2466042     946968.5    946975.81    -406.0067 
 1637000   0.10051555    7.2460486    946968.63    946975.94   -405.81709 
 1637500  0.099742015    7.2457544    946804.67    946811.98   -405.79922 
 1638000   0.10009767    7.2439715    947018.36    947025.67   -404.72391 
 1638500   0.10032686     7.244134    946621.55    946628.86   -405.38623 
 1639000   0.10037674    7.2432708    946621.57    946628.88    -404.4376 
 1639500   0.10056329    7.2435278    947121.14    947128.45   -404.97097 
 1640000   0.10012423    7.2450882    945264.61    945271.92   -406.69335 
 1640500   0.10048501    7.2444624    944630.65    944637.96   -405.84761 
 1641000   0.10014687    7.2455927    944097.12    944104.44   -402.54214 
 1641500    0.1000493    7.2460368    943604.13    943611.44   -404.07919 
 1642000   0.10001031    7.2468948    943604.09     943611.4   -403.30182 
 1642500   0.10017514    7.2471332    944154.68    944161.99   -404.98647 
 1643000   0.10020781    7.2477744    943513.81    943521.13   -404.85734 
 1643500   0.10009627    7.2498944    943744.75    943752.06   -403.67154 
 1644000    0.1001557    7.2520444     944168.3    944175.62   -404.61964 
 1644500   0.10025183     7.253389     944168.3    944175.62    -403.3585 
 1645000   0.10036137    7.2536206    942728.49    942735.81   -404.69021 
 1645500   0.10030393    7.2541486     942201.1    942208.42   -405.87514 
 1646000   0.10000339    7.2531079    942190.71    942198.03   -408.38857 
 1646500   0.10020933    7.2541658    942190.61    942197.93   -404.33366 
 1647000  0.099942269    7.2554187    941372.74    941380.06   -407.16387 
 1647500   0.10004449    7.2554604    942486.79    942494.11   -404.45358 
 1648000   0.10030188    7.2556696    941660.88    941668.21    -405.5885 
 1648500   0.10004063    7.2530116    941660.88     941668.2    -406.5055 
 1649000   0.10029498    7.2552182    942041.66    942048.99   -402.62857 
 1649500  0.099827139    7.2551126    941801.75    941809.07   -404.45763 
 1650000  0.099993177    7.2575399       942629    942636.32   -403.79047 
 1650500  0.099881711    7.2573489    942629.04    942636.36   -407.36887 
 1651000   0.10027064    7.2568894    942023.01    942030.33   -403.61983 
 1651500     0.100451    7.2559584     943880.3    943887.62   -407.18417 
 1652000   0.10048558    7.2557455    943412.91    943420.23   -403.84388 
 1652500  0.099806101    7.2549462    944745.29    944752.61   -404.05397 
 1653000   0.10009967    7.2554397    944969.79    944977.12   -405.38295 
 1653500  0.099714715     7.255125    944755.63    944762.95   -406.29294 
 1654000   0.10012724    7.2540153    944556.05    944563.38   -404.11462 
 1654500   0.10023628    7.2554218    945301.58    945308.91    -403.4258 
 1655000   0.10006864     7.255563    943867.68       943875   -405.20262 
 1655500   0.10047021    7.2562671    943867.69    943875.01      -404.77 
 1656000   0.10010328    7.2563743    942969.24    942976.57   -404.20071 
 1656500   0.10057767    7.2569703    941683.48     941690.8   -404.34068 
 1657000   0.10058294    7.2560124    940724.62    940731.94   -402.12248 
 1657500   0.10006447    7.2564034    940588.48     940595.8   -406.86002 
 1658000   0.10032562    7.2557024    939692.62    939699.95   -403.64392 
 1658500    0.1004987    7.2545727    937697.66    937704.98   -403.94979 
 1659000  0.099906435    7.2545102    937697.69    937705.01   -402.27231 
 1659500   0.10050777    7.2545413    937155.54    937162.86   -406.17977 
 1660000   0.10027181     7.255553    936655.58     936662.9   -406.01677 
 1660500   0.10029225     7.252309     935513.5    935520.82   -404.63742 
 1661000   0.10055792    7.2532339    934465.11    934472.43   -404.29345 
 1661500  0.099981316    7.2552872    934078.93    934086.25   -405.48393 
 1662000   0.10050358    7.2536412    934078.89    934086.22   -405.87683 
 1662500   0.10035269    7.2530309    933003.01    933010.33   -405.52721 
 1663000  0.099762131    7.2529659     931758.7    931766.02   -405.67034 
 1663500   0.10044761    7.2521032    930370.06    930377.38    -403.6677 
 1664000   0.10055369    7.2530396    929500.48     929507.8   -405.80814 
 1664500    0.1002384    7.2541241    929052.91    929060.24   -404.14772 
 1665000   0.10012301    7.2512852    927764.26    927771.58   -406.57088 
 1665500   0.10053874    7.2518548    927764.22    927771.54   -406.56082 
 1666000   0.10034944    7.2513115    927635.28     927642.6   -405.76727 
 1666500   0.10001339    7.2529173     927580.2    927587.52   -403.87104 
 1667000   0.10043155    7.2537877    927224.68       927232   -403.19121 
 1667500   0.10029402    7.2536221    927224.51    927231.83    -406.7921 
 1668000   0.10005081    7.2554761    928793.71    928801.03    -405.3995 
 1668500   0.10004773     7.255406    927618.39    927625.72   -402.86076 
 1669000   0.10022226     7.254031    928177.04    928184.37   -404.48452 
 1669500   0.10004115    7.2551304    927538.17    927545.49   -405.72118 
 1670000   0.10044263    7.2537358    927538.19    927545.51   -403.35201 
 1670500   0.10065221    7.2562699    927104.15    927111.48   -404.56423 
 1671000  0.099873802    7.2554434    926682.63    926689.95   -405.45136 
 1671500   0.10045854    7.2537269    927589.54    927596.86   -405.84423 
 1672000   0.10034508    7.2536279    928196.42    928203.74    -405.7789 
 1672500   0.10021801    7.2514008    928196.33    928203.65    -404.6872 
 1673000   0.10067575    7.2497215    929360.78     929368.1   -408.05129 
 1673500    0.1000512     7.250873    929603.75    929611.06   -405.60909 
 1674000   0.10044253     7.251037    931685.06    931692.38   -403.69566 
 1674500   0.10036812    7.2493565    932148.02    932155.33   -406.64737 
 1675000  0.099937778    7.2496426    934046.72    934054.03    -406.1061 
 1675500   0.10069835      7.24959    934272.34    934279.66   -404.60317 
 1676000    0.1003426    7.2482929    935273.61    935280.93    -405.1687 
 1676500    0.1001736    7.2478005    938421.93    938429.25   -406.24467 
 1677000   0.10021552    7.2472075    940599.09     940606.4   -403.48389 
 1677500   0.10007055    7.2466874    942246.31    942253.63   -404.45353 
 1678000   0.10056965    7.2458332    945420.09    945427.41    -405.1454 
 1678500   0.10093712    7.2459993    945420.06    945427.37   -403.98191 
 1679000   0.10014749    7.2472341    947492.63    947499.94   -404.01273 
 1679500   0.10069627    7.2464917    947944.36    947951.67   -404.38541 
 1680000   0.10046115     7.245288    949754.96    949762.27   -403.68449 
 1680500   0.10028551    7.2456609    950959.47    950966.79     -404.002 
 1681000   0.10004252    7.2455432    952417.93    952425.24   -404.90573 
 1681500   0.10046368    7.2446651    955324.63    955331.94    -409.1843 
 1682000   0.10031224    7.2426714    958200.27    958207.58   -406.41833 
 1682500   0.10011371    7.2430864    958200.36    958207.67   -402.78733 
 1683000   0.10003713    7.2437692     961966.5    961973.81   -405.82536 
 1683500    0.1008725    7.2440656    964568.72    964576.03   -404.20965 
 1684000   0.10068718    7.2419917    966465.68    966472.99   -404.35356 
 1684500   0.10051245    7.2453638    967436.82    967444.13   -405.20181 
 1685000   0.10017714    7.2459258    968262.82    968270.14   -405.21907 
 1685500   0.10012736    7.2465011    968726.67    968733.98    -402.6237 
 1686000    0.1001565    7.2467478    969177.05    969184.37   -406.05789 
 1686500   0.10008593    7.2474578    969176.99    969184.31   -403.35454 
 1687000   0.10038327    7.2482646    968890.35    968897.66   -405.36219 
 1687500    0.1004712    7.2465861    968109.56    968116.88   -404.91771 
 1688000     0.100336     7.247079    966968.71    966976.02   -402.56817 
 1688500  0.099993666    7.2455964    966968.68    966975.99    -404.4677 
 1689000  0.099893186    7.2474763    965415.59     965422.9   -405.43234 
 1689500   0.10098346    7.2477003    964795.14    964802.45   -405.09698 
 1690000   0.10053612    7.2484079    964357.82    964365.14   -405.57492 
 1690500   0.10000903    7.2501698    964568.46    964575.78   -406.47589 
 1691000   0.10039687    7.2493653    963580.47    963587.79   -403.60209 
 1691500   0.10045478    7.2511075    960697.66    960704.98   -403.29063 
 1692000   0.10031491    7.2518682    960697.69       960705   -404.80103 
 1692500   0.10033195    7.2519177    961106.74    961114.06   -405.83936 
 1693000    0.1004388     7.253107    959980.69    959988.01   -404.00675 
 1693500  0.099996434    7.2541214    959016.85    959024.17   -404.96118 
 1694000   0.10054616    7.2543852    958209.18    958216.51   -403.27534 
 1694500   0.10058509    7.2522632    956434.61    956441.93   -402.62497 
 1695000   0.10027983    7.2529981    955120.11    955127.43   -406.04557 
 1695500   0.10037451    7.2527519    954022.47    954029.79   -406.11958 
 1696000   0.10004766    7.2550066    951213.31    951220.63   -404.30723 
 1696500   0.10029806    7.2543951    949361.68       949369   -404.63425 
 1697000   0.10014506    7.2547609    949361.73    949369.05   -405.08366 
 1697500   0.10033918    7.2543262    947731.14    947738.46   -403.73502 
 1698000  0.099900383    7.2538828    947723.94    947731.26     -403.284 
 1698500   0.10040628    7.2565825    947005.27    947012.59    -403.9925 
 1699000   0.10019314    7.2573834    945990.01    945997.34   -405.26266 
 1699500   0.10050919    7.2575757    943043.94    943051.26   -407.05066 
 1700000  0.099916844    7.2567107    940283.96    940291.28   -403.97837 
 1700500   0.10030777    7.2587813     939832.3    939839.63   -405.96523 
 1701000   0.10000554    7.2579088    937953.13    937960.46   -404.72573 
 1701500  0.099670017    7.2590374    935978.28    935985.61   -404.58812 
 1702000   0.10074245     7.260417    933573.69    933581.02   -406.26687 
 1702500   0.10027298    7.2606847    931866.27     931873.6   -404.91055 
 1703000   0.10022818    7.2600568    929580.97     929588.3   -404.90822 
 1703500   0.10060659    7.2610633    929580.98    929588.31   -403.56049 
 1704000   0.10006788    7.2613393    927449.82    927457.15    -403.5277 
 1704500   0.10007189    7.2606678    926221.72    926229.05   -404.19894 
 1705000   0.10033057    7.2621586    924813.53    924820.86   -403.87488 
 1705500   0.10046212     7.263012    924813.55    924820.88   -404.51314 
 1706000   0.10054626    7.2647064    925408.71    925416.04   -406.49248 
 1706500   0.10007602     7.265249     925604.7    925612.03   -403.86244 
 1707000   0.10020087    7.2664297    924640.15    924647.48   -405.06544 
 1707500   0.10006325    7.2647774    922588.58    922595.92   -406.57812 
 1708000   0.10053562    7.2675056    920947.79    920955.12   -406.16916 
 1708500   0.10049082    7.2684441    920947.77    920955.11   -403.40289 
 1709000   0.10017543    7.2686679    920332.81    920340.15    -404.0708 
 1709500   0.10015637    7.2677966    918721.38    918728.72   -405.70034 
 1710000   0.10018069    7.2696394    918061.99    918069.32   -405.11133 
 1710500  0.099970578    7.2701582    917729.69    917737.03   -403.76776 
 1711000    0.1002655    7.2715644    917599.06     917606.4   -406.23887 
 1711500   0.10034802    7.2713563    917599.07     917606.4   -405.10852 
 1712000   0.10014349    7.2717267    918285.47    918292.81   -405.89557 
 1712500   0.10041084    7.2721929    919591.72    919599.06   -406.64549 
 1713000   0.10006613    7.2690894    921161.18    921168.51   -401.00288 
 1713500   0.10021942     7.270207    922925.53    922932.87   -406.63127 
 1714000   0.10052889    7.2694231     924537.2    924544.54   -403.87151 
 1714500   0.10032481    7.2697574    924608.25    924615.59   -405.59786 
 1715000   0.10024397    7.2701919    924608.27     924615.6   -405.02468 
 1715500   0.10043936    7.2678401    925334.68    925342.01   -405.38121 
 1716000   0.10032779    7.2696132    926050.44    926057.78   -403.83701 
 1716500  0.099962963    7.2689703    926440.98    926448.31    -404.8223 
 1717000   0.10040275    7.2695944    927282.87     927290.2   -404.54304 
 1717500   0.10032804    7.2678716    928792.64    928799.97   -406.90255 
 1718000   0.10027851    7.2666745     930210.5    930217.83   -404.34786 
 1718500   0.10028628    7.2668757    930879.52    930886.85   -403.09051 
 1719000   0.10031539    7.2681822     932667.4    932674.73   -402.60825 
 1719500   0.10009543    7.2656721    933854.91    933862.24   -408.57958 
 1720000   0.10016272    7.2672241     934813.6    934820.93    -405.1925 
 1720500   0.10026474    7.2673379    936625.11    936632.44   -403.83645 
 1721000   0.10038362    7.2663447     936625.1    936632.43   -404.53975 
 1721500  0.099913987    7.2647522    938298.78    938306.11   -402.03929 
 1722000   0.10050939    7.2658091    940010.77    940018.11   -405.29912 
 1722500   0.10017373    7.2650529    941308.88    941316.21   -403.17561 
 1723000   0.10044268    7.2654201    942307.04    942314.38   -404.22251 
 1723500   0.10006771    7.2639925    943393.18    943400.51   -408.58996 
 1724000    0.1001898    7.2646342     943393.3    943400.63   -405.32704 
 1724500   0.10044718     7.264072     944765.9    944773.23   -403.88904 
 1725000   0.10074602    7.2622678    946682.71    946690.04    -403.6328 
 1725500   0.10025766    7.2611201    948292.56    948299.89   -405.25693 
 1726000   0.10051968    7.2614573    947890.03    947897.36   -403.37599 
 1726500   0.10052594    7.2616061    946564.95    946572.28   -405.05056 
 1727000   0.10045117    7.2614814    946144.46    946151.79   -407.56696 
 1727500   0.10031274    7.2612952     946144.5    946151.83   -403.40621 
 1728000    0.1005982    7.2599961     946168.1    946175.42   -407.75713 
 1728500   0.10031118    7.2600756     947444.2    947451.53   -403.80507 
 1729000   0.10010048    7.2600855       948159    948166.33    -404.2591 
 1729500   0.10001346    7.2594795    947840.25    947847.57   -405.11339 
 1730000   0.10018159    7.2572324    949341.58    949348.91   -404.46932 
 1730500    0.1003948    7.2569437    948713.95    948721.27   -406.85767 
 1731000    0.1005069    7.2571885    948807.67       948815    -404.0281 
 1731500   0.10026762    7.2559634    949544.25    949551.57   -405.87782 
 1732000   0.10013013    7.2554775    948754.85    948762.17   -406.72063 
 1732500    0.1004032    7.2552587    949906.54    949913.86   -404.74753 
 1733000   0.10037709    7.2540923     949664.1    949671.42    -404.4219 
 1733500   0.10006039    7.2529481    949567.64    949574.96    -406.3083 
 1734000   0.10006424    7.2536182    949567.53    949574.85   -402.56384 
 1734500   0.10060674    7.2519152    948477.34    948484.66   -405.11297 
 1735000   0.10047292    7.2524148    948462.05    948469.37   -406.77187 
 1735500   0.10041815    7.2502256    947837.84    947845.15   -405.12946 
 1736000   0.10019825    7.2493494    946664.51    946671.83   -403.73005 
 1736500  0.099983985    7.2476696    946663.46    946670.78   -403.44221 
 1737000   0.10042808    7.2471177    944592.64    944599.95   -404.80018 
 1737500   0.10032554    7.2463547     944592.6    944599.92   -405.85668 
 1738000   0.10038135    7.2481152     943742.2    943749.51   -406.73204 
 1738500   0.10014731    7.2476185    941826.63    941833.95   -407.93287 
 1739000   0.10022648    7.2464238    940757.68    940764.99   -403.22289 
 1739500   0.10008864    7.2465463    939997.45    940004.76   -404.54296 
 1740000   0.10025006    7.2467334    938126.31    938133.62   -402.79029 
 1740500   0.10034345     7.245608    937384.36    937391.67   -405.27317 
 1741000   0.10001806    7.2463113    937709.81    937717.12   -405.92778 
 1741500   0.10024419     7.244978    936193.14    936200.46   -406.60433 
 1742000   0.10048764    7.2431327    935818.16    935825.47    -403.5319 
 1742500  0.099987044    7.2438052    934666.36    934673.67   -405.07699 
 1743000   0.10015599    7.2439114    934200.09     934207.4   -404.76602 
 1743500   0.10023088    7.2440044    933179.83    933187.14   -403.46813 
 1744000  0.099849245    7.2429248    934039.31    934046.62   -406.01772 
 1744500   0.10034726    7.2408918    933833.12    933840.43   -404.52371 
 1745000   0.10024424    7.2419348    933833.22    933840.53   -404.59192 
 1745500   0.10060444    7.2419685    935105.75    935113.06   -406.36823 
 1746000   0.10026195    7.2418178    935082.42    935089.73   -405.35983 
 1746500   0.10007491     7.242307    936161.13    936168.44   -407.44338 
 1747000   0.10038399    7.2398213    938013.14    938020.45   -407.41808 
 1747500   0.10045386    7.2399035    938094.19    938101.49   -404.65521 
 1748000   0.10003154    7.2398099    938094.22    938101.53   -404.98149 
 1748500   0.10059181    7.2407075     938252.4    938259.71    -404.7574 
 1749000   0.10017453    7.2397522    938021.38    938028.69   -402.58461 
 1749500   0.10027815    7.2384349    939062.51    939069.82   -404.83511 
 1750000    0.1003801    7.2406309    942209.46    942216.77    -403.4194 
 1750500   0.10019875    7.2413302    942209.44    942216.75    -404.5525 
 1751000  0.099961237    7.2417626    942195.51    942202.82   -404.38519 
 1751500   0.10025685    7.2407865    944275.89     944283.2   -406.35889 
 1752000   0.10038943    7.2404122    945544.34    945551.65   -404.72186 
 1752500  0.099970511    7.2397451    947808.64    947815.95   -403.26201 
 1753000   0.10008823    7.2375161    950958.76    950966.06    -405.2755 
 1753500   0.10033251    7.2364539    950958.63    950965.93   -407.41876 
 1754000   0.10011026    7.2357335    953810.74    953818.04    -403.7852 
 1754500   0.10020495    7.2368399    955938.92    955946.22   -405.52184 
 1755000   0.10014937    7.2371659    957581.87    957589.17   -406.13236 
 1755500   0.10003136    7.2357503    960029.85    960037.15   -403.98196 
 1756000   0.10034608    7.2361749    961603.78    961611.08    -403.2991 
 1756500   0.10029035     7.235864    961603.72    961611.02   -404.43628 
 1757000   0.10059551    7.2357427    962013.69    962020.99   -405.12578 
 1757500   0.10048651    7.2342755    962890.05    962897.35    -404.5354 
 1758000   0.10053858    7.2323558     962782.8     962790.1   -405.86276 
 1758500  0.099977459    7.2346909    963626.06    963633.36   -406.23117 
 1759000   0.10039231    7.2336439    962575.08    962582.38   -405.52361 
 1759500   0.10044016    7.2346801    962904.26    962911.56   -405.23826 
 1760000   0.10041939     7.235128     962904.2     962911.5   -404.45452 
 1760500   0.10054156    7.2332241    961492.54    961499.84   -403.17902 
 1761000   0.10059759    7.2337768    959653.82    959661.12   -405.85981 
 1761500  0.099934993    7.2339195    957816.94    957824.24    -405.3466 
 1762000   0.10015677    7.2346094    956607.39    956614.69   -407.24999 
 1762500   0.10064763    7.2331763    955403.62    955410.92    -404.8127 
 1763000  0.099848348    7.2315935    954719.34    954726.64   -406.50402 
 1763500   0.10020432    7.2323624    954719.28    954726.58   -404.98769 
 1764000   0.10067687    7.2334131    953193.53    953200.83   -406.52391 
 1764500   0.10024859    7.2317138    950057.19    950064.49   -403.38192 
 1765000   0.10008465    7.2321375    947101.89    947109.18   -402.22406 
 1765500   0.10027357    7.2321032    946276.64    946283.94   -405.45419 
 1766000   0.10014538    7.2326948    943873.38    943880.68   -404.58274 
 1766500   0.10029638    7.2319312    943873.35    943880.65   -406.59419 
 1767000   0.10009087    7.2296154    941718.66    941725.95    -405.4453 
 1767500   0.10023054    7.2298382    940423.75    940431.05   -401.12803 
 1768000   0.10083499    7.2301688    938317.48    938324.77   -403.75289 
 1768500   0.10020464    7.2290455    937741.41     937748.7   -403.41541 
 1769000   0.10006489    7.2310558    937636.54    937643.83    -405.0227 
 1769500   0.10046564    7.2308769    936445.72    936453.02   -405.58409 
 1770000  0.099931163    7.2316555    936445.61    936452.91   -405.83856 
 1770500   0.10040246    7.2322517    935800.15    935807.45   -403.61433 
 1771000   0.10047651    7.2297022    933593.49    933600.78    -407.3711 
 1771500   0.10035943    7.2321548     932214.6     932221.9   -401.71402 
 1772000   0.10029636    7.2297082    930960.07    930967.36   -401.13565 
 1772500   0.10045413    7.2307926    930525.16    930532.45    -406.4859 
 1773000   0.10017779    7.2307707    930525.19    930532.49   -408.27633 
 1773500   0.10029946    7.2291244    930013.88    930021.17   -404.71024 
 1774000   0.10020978     7.231193    931448.34    931455.64   -406.52556 
 1774500  0.099876463    7.2300089    932888.25    932895.54   -403.02041 
 1775000   0.10028634     7.230064    933156.97    933164.26   -401.97935 
 1775500   0.09991626    7.2300224    934433.25    934440.55   -403.74216 
 1776000  0.099978512    7.2302116    935202.43    935209.72   -404.86781 
 1776500    0.1001743    7.2304092    936395.64    936402.93    -402.7634 
 1777000   0.10035955    7.2286835    937907.96    937915.26   -402.59565 
 1777500    0.1002162    7.2284511    937907.87    937915.17   -403.17589 
 1778000   0.10034248     7.229537    938551.02    938558.32   -406.02916 
 1778500   0.10009737    7.2292612    937812.77    937820.06   -406.14625 
 1779000   0.10068904    7.2301727    937825.18    937832.48   -405.94995 
 1779500   0.10032046    7.2298777    937363.91    937371.21   -406.02224 
 1780000   0.10007102    7.2302336    937754.93    937762.23   -404.76555 
 1780500   0.10051067    7.2304129    937754.86    937762.16   -406.51764 
 1781000   0.10027002     7.227724    937172.98    937180.28   -406.39198 
 1781500   0.10021729    7.2276792    937177.45    937184.74   -405.90424 
 1782000   0.10050789    7.2276733    937083.81     937091.1   -404.54096 
 1782500  0.099722389    7.2280016    936608.67    936615.96   -405.67306 
 1783000    0.1004521    7.2270503    936335.94    936343.24   -403.49582 
 1783500   0.10065353    7.2275201    936335.98    936343.27   -402.87846 
 1784000   0.10050983    7.2276034    936946.99    936954.29   -402.09728 
 1784500   0.10015823     7.229502    937586.92    937594.22   -405.05186 
 1785000   0.10032458    7.2284884    938931.79    938939.09   -403.68332 
 1785500   0.10070861    7.2281159    938972.54    938979.83   -406.54774 
 1786000   0.10042362    7.2246533    937957.35    937964.64   -405.36581 
 1786500   0.10012497    7.2249063    936979.41     936986.7   -405.84363 
 1787000   0.10030113    7.2229614    936449.24    936456.53   -405.90152 
 1787500   0.10018542    7.2232964    935577.99    935585.28   -404.71849 
 1788000   0.10019468    7.2251063    935578.08    935585.37     -404.592 
 1788500   0.10009615    7.2249501    935231.94    935239.23   -403.32058 
 1789000   0.09996099    7.2247269    934872.31     934879.6   -405.15051 
 1789500   0.10056728    7.2236932    933909.64    933916.93   -403.97768 
 1790000   0.10019612    7.2222437    932790.88    932798.17   -404.46183 
 1790500   0.10045235    7.2220674     930432.7    930439.99   -406.67841 
 1791000   0.10011313    7.2218502    930432.78    930440.07   -405.52139 
 1791500   0.10040297    7.2213331    927723.87    927731.15   -404.52266 
 1792000   0.10060174    7.2199529    925755.93    925763.22   -404.63478 
 1792500   0.10043078    7.2207808    923200.65    923207.93   -405.09809 
 1793000   0.10028565    7.2205297    921019.34    921026.62   -407.74989 
 1793500  0.099887383    7.2212925    918679.91     918687.2   -405.86694 
 1794000   0.10052722     7.221916    918679.95    918687.24   -405.79731 
 1794500   0.10025717    7.2223452    915785.11    915792.39   -405.73725 
 1795000   0.10014416    7.2232772    913640.38    913647.67   -405.39159 
 1795500   0.10019874    7.2230095    912055.61     912062.9   -406.24771 
 1796000   0.10065975     7.222857    909240.65    909247.94   -403.86565 
 1796500    0.1000697    7.2217512    908045.64    908052.93   -405.56878 
 1797000   0.10013049    7.2221058    906124.73    906132.01   -406.88466 
 1797500     0.100295    7.2245526    906124.67    906131.96   -405.19027 
 1798000   0.10026126    7.2243377    903636.25    903643.54   -404.66202 
 1798500   0.10013724    7.2234055     900412.5    900419.79   -405.71092 
 1799000   0.10007478    7.2225831    898802.54    898809.83   -406.76373 
 1799500   0.10006146    7.2233093       896667    896674.29   -404.66898 
 1800000   0.10094707    7.2240945    895048.28    895055.57   -405.32224 
 1800500   0.10059296    7.2235264    895048.23    895055.52   -405.56146 
 1801000   0.10056329     7.225291    893796.47    893803.76   -403.38959 
 1801500   0.10035764    7.2276258    893761.33    893768.62   -404.55835 
 1802000   0.09993007    7.2276415    894101.54    894108.83   -406.13862 
 1802500  0.099998815    7.2275656    892629.06    892636.35   -403.56501 
 1803000  0.099999345    7.2273324    892718.57    892725.87   -404.62404 
 1803500   0.10029205    7.2286658    892139.59    892146.88   -404.38081 
 1804000   0.10045094    7.2301015    891671.63    891678.93   -405.55448 
 1804500   0.10039007    7.2315283    892375.14    892382.44   -403.43845 
 1805000    0.1001955    7.2313037    892375.25    892382.55    -403.3139 
 1805500   0.10011938    7.2323114     894089.1     894096.4   -404.27223 
 1806000  0.099825772    7.2305604    895575.65    895582.95   -404.61471 
 1806500   0.10040615    7.2309934    896921.53    896928.82   -405.46747 
 1807000   0.10006123     7.230519    897850.77    897858.07    -406.0949 
 1807500   0.10044356    7.2310098    899829.54    899836.83   -407.02384 
 1808000    0.1001108    7.2296416    899829.44    899836.73   -405.03873 
 1808500   0.10084372     7.229426    901998.73    902006.03   -404.35713 
 1809000   0.10026804    7.2298349    901998.79    902006.08   -404.22376 
 1809500   0.10079394    7.2291312     903537.2    903544.49   -403.33233 
 1810000    0.1003221     7.230219    905726.77    905734.06   -404.14979 
 1810500   0.10046273    7.2299468    907636.17    907643.47   -404.59122 
 1811000   0.10071764    7.2276552    909198.06    909205.35   -403.20773 
 1811500   0.10048895    7.2271962    910758.34    910765.64    -406.4748 
 1812000   0.10041709     7.227652    913757.45    913764.75   -404.31832 
 1812500    0.1000329    7.2278833    913757.45    913764.75   -405.32242 
 1813000   0.10018278    7.2280467    915260.69    915267.99   -402.45422 
 1813500   0.10024968     7.228451    919801.88    919809.18   -404.82497 
 1814000    0.1001514    7.2305446     920441.9    920449.19   -406.84351 
 1814500   0.10012115    7.2316411    922247.13    922254.42    -405.4204 
 1815000  0.099827593     7.230153    924129.89    924137.19    -405.5181 
 1815500   0.10033114    7.2320816    924129.87    924137.17     -403.163 
 1816000   0.10039711     7.230958    926334.77    926342.07   -405.61547 
 1816500   0.10051943    7.2324995    927118.73    927126.02   -404.93045 
 1817000   0.10072809    7.2343621    926922.11    926929.41    -406.0215 
 1817500   0.10009416    7.2352903    927016.67    927023.97   -402.35508 
 1818000   0.10080205    7.2346535    927551.41    927558.71   -404.51536 
 1818500   0.10004456     7.234966    926016.54    926023.84   -403.04912 
 1819000   0.10017706    7.2361913    926016.56    926023.86   -405.87312 
 1819500  0.099791671    7.2368224    927637.55    927644.86   -405.82262 
 1820000   0.10021062    7.2390727     928196.6    928203.91   -402.69056 
 1820500   0.10024621    7.2392266     931140.8     931148.1   -402.81891 
 1821000   0.10060314    7.2385161    933287.91    933295.21   -404.69761 
 1821500   0.10006532    7.2407148    933287.86    933295.17   -403.22414 
 1822000   0.10023123    7.2398794    935529.82    935537.13   -403.06429 
 1822500   0.10022562    7.2423803    938196.52    938203.83   -405.88026 
 1823000   0.10023099    7.2443896    939630.55    939637.86   -405.06364 
 1823500   0.10037128    7.2440096    940191.25    940198.56   -405.11573 
 1824000   0.09996639    7.2450754    940864.95    940872.26   -404.30143 
 1824500   0.10032149    7.2456837     942791.8    942799.11    -407.5931 
 1825000   0.10032351    7.2468075    942960.53    942967.85   -404.12343 
 1825500   0.10072888    7.2451779    942960.52    942967.83    -406.4358 
 1826000  0.099993926    7.2465776    944724.12    944731.43   -403.72636 
 1826500   0.10025515    7.2457122    945072.42    945079.74   -404.34126 
 1827000  0.099726326     7.246085     945459.4    945466.71   -406.05608 
 1827500   0.10048178    7.2486541    946606.77    946614.09   -404.52623 
 1828000   0.10001944    7.2467485    946774.37    946781.68   -402.49303 
 1828500  0.099969561    7.2484324    946774.29     946781.6   -405.75145 
 1829000   0.10001879    7.2489021    946451.02    946458.34   -402.97352 
 1829500   0.10031092    7.2493111    948047.78     948055.1   -405.45523 
 1830000   0.10001675    7.2502137    948094.09    948101.41   -405.22861 
 1830500  0.099841455    7.2502153    948976.04    948983.36   -402.63544 
 1831000   0.10029965    7.2505423    949900.45    949907.77   -407.09014 
 1831500   0.10000198    7.2504204    949900.34    949907.66    -404.5132 
 1832000  0.099735834    7.2506283    949675.58     949682.9    -404.1445 
 1832500  0.099815401    7.2500368    949117.29     949124.6   -406.39001 
 1833000   0.10008912    7.2485246    948690.02    948697.33   -405.52294 
 1833500   0.10018403    7.2499402    948312.54    948319.85   -404.62883 
 1834000  0.099957517    7.2481781    947775.06    947782.38   -407.86849 
 1834500   0.10001749    7.2481276    948845.52    948852.83   -405.95451 
 1835000   0.10041474    7.2484034    949300.87    949308.19   -403.45747 
 1835500   0.10031831    7.2485475    950599.77    950607.08   -406.08698 
 1836000   0.10005007    7.2487511    950661.97    950669.28    -404.6622 
 1836500  0.099928445    7.2482753       953070    953077.32   -405.37044 
 1837000    0.1000766    7.2468124    952466.86    952474.18   -405.12072 
 1837500   0.10036785    7.2480438    952466.88     952474.2   -406.93764 
 1838000   0.09984752    7.2453319    954190.08     954197.4    -402.3496 
 1838500   0.10055893    7.2466262    953880.49     953887.8   -406.41069 
 1839000  0.099975491    7.2480242    954432.18     954439.5   -404.44184 
 1839500   0.10064318    7.2489706    954359.89    954367.21   -403.89793 
 1840000   0.10005729    7.2496991    956316.42    956323.73    -403.7756 
 1840500   0.10034308    7.2498262    957299.14    957306.46   -403.65471 
 1841000   0.10063228    7.2507927    957299.18     957306.5   -406.94275 
 1841500   0.10016893    7.2483659    957516.24    957523.56   -405.96132 
 1842000   0.10053636    7.2480532     956556.8    956564.12   -406.28859 
 1842500  0.099910299     7.250083    956250.92    956258.24   -403.99258 
 1843000   0.10034487    7.2490708     954643.7    954651.02   -403.67507 
 1843500   0.10026458    7.2479547     953258.7    953266.01   -406.55041 
 1844000   0.10037038    7.2474828    951716.78    951724.09   -404.43365 
 1844500   0.09996066    7.2480273    951716.68    951723.99   -404.92039 
 1845000   0.10038102    7.2484332    949491.68       949499   -403.18202 
 1845500  0.099858464    7.2500549    946277.69    946285.01   -406.38219 
 1846000   0.10060214    7.2502675    944686.63    944693.94   -404.28942 
 1846500    0.1000699    7.2509308     944775.1    944782.41   -404.63303 
 1847000   0.10053869     7.251174    944247.24    944254.56   -406.21727 
 1847500   0.10040745    7.2518248    942442.57    942449.89   -405.79202 
 1848000   0.10016075    7.2506491    942994.83    943002.15   -403.18745 
 1848500   0.10024543    7.2506102    939835.76    939843.07   -405.11095 
 1849000  0.099970059    7.2498635    939835.88    939843.19   -406.65619 
 1849500   0.10050256    7.2490476    939672.01    939679.33   -406.10259 
 1850000   0.10041455    7.2479451    936102.79    936110.11   -408.20199 
 1850500   0.10054757    7.2486611    936102.78     936110.1   -403.60595 
 1851000   0.10029866    7.2475009    935684.04    935691.35   -405.75456 
 1851500   0.10041837    7.2480195    934548.01    934555.32    -405.2143 
 1852000   0.10032956    7.2470822    932970.08    932977.39   -405.14274 
 1852500   0.10068164    7.2482336    931431.88    931439.19   -404.67686 
 1853000   0.10034985    7.2472465    930955.74    930963.05   -403.86316 
 1853500   0.10026593    7.2477984    930955.78    930963.09   -406.07814 
 1854000  0.099929775    7.2468859    930494.61    930501.92    -406.2729 
 1854500   0.10015083    7.2460398    929608.04    929615.35   -405.12226 
 1855000  0.099983021     7.246907    929587.32    929594.63   -404.86444 
 1855500  0.099959037    7.2486531    929417.79    929425.11   -404.29576 
 1856000   0.10017819    7.2463556    930231.55    930238.86   -404.55566 
 1856500   0.10023712     7.246542    929152.36    929159.67    -406.0007 
 1857000   0.10021505    7.2426814    929392.08    929399.39   -406.60783 
 1857500   0.10066006    7.2427654     929872.2    929879.51   -406.13811 
 1858000   0.10007524    7.2409532    928655.13    928662.43   -403.78246 
 1858500  0.099678754    7.2394425    928655.09     928662.4   -406.98552 
 1859000  0.099689461    7.2386865    928038.01    928045.32   -402.33478 
 1859500   0.10000674    7.2379516    927292.61    927299.92   -405.12466 
 1860000   0.10038195     7.239195    927589.82    927597.13   -402.72846 
 1860500   0.10015976    7.2383495     927144.4     927151.7   -403.75573 
 1861000   0.10012652    7.2391048    928348.77    928356.08   -405.18426 
 1861500   0.10022823    7.2380538    928348.81    928356.12   -403.85318 
 1862000   0.10043413    7.2372558    929497.43    929504.73   -405.83923 
 1862500    0.1000751    7.2349951    929497.38    929504.68   -403.69169 
 1863000   0.10067503    7.2358638    930687.79    930695.09   -405.16667 
 1863500   0.10008677    7.2348303    933926.06    933933.36   -403.75041 
 1864000    0.1000917    7.2332089    936036.41    936043.71   -403.52503 
 1864500   0.10025311    7.2333233    937401.43    937408.73   -404.46248 
 1865000   0.10032867    7.2319894    939872.47    939879.77   -406.39814 
 1865500   0.10012267    7.2312254    943784.62    943791.91   -401.54638 
 1866000   0.10048472    7.2322531    945550.79    945558.09   -404.58288 
 1866500   0.10028207    7.2324198    945550.77    945558.07   -405.72229 
 1867000  0.099730093    7.2321378    949045.08    949052.38   -406.45408 
 1867500  0.099750073    7.2297519    952393.12    952400.42   -405.01754 
 1868000   0.10002174    7.2313295    954004.05    954011.35   -405.13624 
 1868500   0.10076836      7.23123    954004.13    954011.43   -404.73078 
 1869000  0.099903833    7.2302777    957136.46    957143.75    -405.8604 
 1869500   0.10012238    7.2297637    959685.91    959693.21   -403.94061 
 1870000  0.099813808    7.2311356    961488.44    961495.74   -404.89935 
 1870500   0.10014069    7.2319225     962765.5    962772.79   -404.55322 
 1871000   0.10045027     7.230812    964308.79    964316.09   -406.39573 
 1871500     0.100228    7.2302245     964308.9     964316.2   -405.46964 
 1872000    0.1003279    7.2322275    966522.03    966529.32   -403.67946 
 1872500   0.10027528    7.2324504    968625.83    968633.13   -405.41969 
 1873000  0.099893422    7.2332993     969625.9     969633.2   -404.65138 
 1873500   0.10061877    7.2338631    970761.79    970769.09   -402.98744 
 1874000   0.10027462    7.2305157    974077.16    974084.46   -406.41626 
 1874500   0.10044501    7.2318646    976203.52    976210.82   -402.30753 
 1875000   0.10040547    7.2312919    977446.75    977454.05   -406.06138 
 1875500   0.10025783    7.2303739    976700.26    976707.55   -405.37543 
 1876000   0.10018774     7.232094    976700.15    976707.44   -403.53338 
 1876500   0.10011533    7.2316775    976375.32    976382.62   -404.26903 
 1877000   0.10023672    7.2317237     976599.8     976607.1    -406.4253 
 1877500   0.10094889    7.2314883    975493.12    975500.42   -403.89429 
 1878000   0.10023247    7.2324267    974174.24    974181.54   -401.79013 
 1878500   0.10025068    7.2328208    972865.46    972872.76   -404.78363 
 1879000   0.10052822    7.2341171    972865.61    972872.91    -405.9555 
 1879500   0.10064648    7.2345034    970445.71    970453.01   -404.72403 
 1880000   0.10009476    7.2345501     968725.6     968732.9   -404.75302 
 1880500   0.10037225    7.2338865    966185.85    966193.15   -407.32796 
 1881000   0.09974681    7.2341494    963924.15    963931.45   -405.75833 
 1881500   0.10009399    7.2337839    961945.35    961952.65   -406.65621 
 1882000   0.10021634    7.2347187    956906.78    956914.08   -405.67725 
 1882500   0.10048766    7.2351799    952892.51    952899.81   -406.16511 
 1883000  0.099856767     7.234363    952892.53    952899.83   -406.09084 
 1883500   0.10032486    7.2347812    950207.25    950214.55   -402.80039 
 1884000  0.099743555    7.2361774    949065.24    949072.54   -401.13966 
 1884500   0.10027456    7.2340671    947738.72    947746.02   -404.41149 
 1885000   0.10029906    7.2329838    946459.64    946466.94   -404.80969 
 1885500   0.10025987    7.2334288     944358.5     944365.8    -406.3904 
 1886000   0.10007368     7.234075    942185.62    942192.92   -405.50783 
 1886500   0.10039232    7.2337661    940609.99     940617.3   -402.90154 
 1887000   0.10012514    7.2348953    938155.54    938162.84   -407.68629 
 1887500    0.1001078    7.2325203    936623.05    936630.35   -405.07872 
 1888000   0.10002661    7.2326863    935057.89    935065.19    -407.0584 
 1888500   0.10001865    7.2334457    933577.09    933584.39   -405.02354 
 1889000   0.10027173    7.2340844     930231.7       930239   -404.25538 
 1889500  0.099856551    7.2336676    928754.73    928762.03   -405.11504 
 1890000   0.10031979    7.2340169    927297.79    927305.09   -404.81357 
 1890500  0.099954279    7.2347194    927037.58    927044.89   -405.35841 
 1891000  0.099974992    7.2332362    924758.23    924765.53   -407.19197 
 1891500   0.10010295     7.233381    920751.62    920758.92   -403.94653 
 1892000   0.10000814     7.234225    920481.39    920488.69   -403.43153 
 1892500   0.10024808     7.234586    917479.43    917486.73   -408.29298 
 1893000   0.10024705    7.2351168    916552.04    916559.34   -406.60194 
 1893500   0.10027101    7.2328229    915881.71       915889   -404.22205 
 1894000  0.099909339    7.2345806    915881.75    915889.06   -403.88556 
 1894500   0.10038202    7.2327832    914100.97    914108.27   -403.54061 
 1895000   0.10022054    7.2338941    913915.14    913922.44     -405.328 
 1895500   0.10035894    7.2334273    913031.26    913038.56   -407.27344 
 1896000  0.099917497    7.2315655    915152.32    915159.62   -405.28983 
 1896500   0.10003141    7.2321153    916873.92    916881.22   -404.03647 
 1897000   0.10025354    7.2315517    916874.01    916881.31   -404.89897 
 1897500   0.10017627    7.2300588    917127.73    917135.03   -404.00264 
 1898000  0.099924618    7.2293574    916708.39    916715.69   -404.60562 
 1898500   0.10022027    7.2280656    919322.42    919329.72   -405.50144 
 1899000   0.10014261    7.2264419    920243.27    920250.56   -405.03818 
 1899500   0.10033022    7.2269617     920243.2    920250.49    -401.3374 
 1900000   0.10014333    7.2257586    923688.28    923695.57   -405.53942 
 1900500   0.10036023    7.2244631    924347.36    924354.65   -404.57633 
 1901000   0.10063546    7.2243671    926884.15    926891.44    -404.1127 
 1901500   0.10004799    7.2253386    927228.52    927235.81    -406.9766 
 1902000   0.10047495    7.2259332    929525.25    929532.54   -407.08995 
 1902500   0.10010017    7.2243025    930003.07    930010.36   -403.85698 
 1903000    0.1002479    7.2244277    931809.47    931816.76   -404.99698 
 1903500   0.10043362     7.225669    934274.09    934281.39   -400.91663 
 1904000   0.10008394    7.2252533    934274.22    934281.51   -406.26125 
 1904500   0.10030975     7.224943    935590.43    935597.72   -403.89182 
 1905000   0.10036179    7.2238413    937430.87    937438.16   -404.72496 
 1905500   0.10043898    7.2230935    939663.26    939670.55   -407.57848 
 1906000   0.10048916     7.222633    939331.71       939339   -405.48328 
 1906500   0.10008499    7.2234007    942433.98    942441.27   -405.60612 
 1907000  0.099916216    7.2217083    943685.58    943692.87   -406.24465 
 1907500   0.10054586    7.2214999    943685.48    943692.77   -405.49603 
 1908000   0.09994681    7.2210068    945766.38    945773.66   -403.38599 
 1908500  0.099825347    7.2213079     949309.6    949316.88   -404.31485 
 1909000  0.099847193    7.2221518    953481.99    953489.28    -407.1338 
 1909500   0.10020224      7.21972    953195.45    953202.73   -407.61652 
 1910000   0.10012942    7.2190462     955078.1    955085.39   -401.73439 
 1910500   0.10027096    7.2190021    955078.25    955085.53   -406.00359 
 1911000   0.10065917    7.2190936    955173.76    955181.05   -403.71516 
 1911500   0.10006024    7.2177484    955237.74    955245.02   -404.19653 
 1912000  0.099997831    7.2164274    955232.49    955239.77    -407.2589 
 1912500   0.10013065    7.2154671    955274.68    955281.96   -403.58547 
 1913000    0.1002625     7.214938    953859.68    953866.96   -401.75796 
 1913500   0.10018039    7.2165076    954891.77    954899.05   -404.30616 
 1914000   0.10045455    7.2149159    953940.47    953947.75   -405.86427 
 1914500   0.10005774    7.2127631    952873.53    952880.81   -404.31004 
 1915000    0.1002366    7.2132238    952152.63    952159.91   -401.51155 
 1915500   0.10059263    7.2128613    950810.41    950817.69   -402.56973 
 1916000   0.10018912    7.2124057    948823.41    948830.69   -405.63261 
 1916500   0.10030857    7.2116352    948823.43    948830.71   -405.15631 
 1917000   0.10015711    7.2097248    947546.25    947553.52   -403.92045 
 1917500    0.1003599    7.2068263    946417.11    946424.39   -403.78495 
 1918000   0.10034264    7.2068929    945943.77    945951.04   -404.66221 
 1918500   0.10034949    7.2042864    944777.49    944784.76   -404.85057 
 1919000   0.10020356    7.2042778    944844.78    944852.05   -406.09568 
 1919500   0.10000335    7.2044291    944844.88    944852.15   -405.44545 
 1920000   0.10038441      7.20594    944411.77    944419.05   -402.82039 
 1920500   0.10033398    7.2060638    942977.48    942984.75   -403.83287 
 1921000   0.10010358    7.2058876    941163.74    941171.01    -403.8756 
 1921500   0.10015992    7.2037154    940109.81    940117.08   -402.77073 
 1922000  0.099910702    7.2026874    940227.95    940235.22   -404.31877 
 1922500   0.10046552    7.2018199     940227.9    940235.17   -406.12217 
 1923000   0.10043077    7.2000958    939252.14    939259.41   -405.78477 
 1923500   0.10053915    7.1990965    938748.48    938755.75   -406.12712 
 1924000   0.10007857    7.1991713     938507.9    938515.16   -406.79248 
 1924500   0.10040543    7.2000672    938425.61    938432.88   -403.89163 
 1925000   0.10029316     7.198521    938667.34    938674.61    -403.5888 
 1925500   0.10050936    7.1995671    937833.04    937840.31   -403.54636 
 1926000   0.10033489    7.2000703       937242    937249.27   -402.65656 
 1926500   0.10020677    7.2004564    937242.03    937249.29   -404.28101 
 1927000   0.10043537    7.2013704    937041.61    937048.87   -405.74941 
 1927500   0.10044747    7.2012519    936828.05    936835.32   -404.47688 
 1928000  0.099879926    7.2013919     935383.5    935390.77   -406.62961 
 1928500   0.10023138    7.2010685    935064.97    935072.24   -405.20172 
 1929000   0.10024961    7.2031086    935924.46    935931.73    -404.8628 
 1929500   0.10030653    7.2026029    935924.46    935931.73   -404.59955 
 1930000   0.10006281    7.2015179    934789.53    934796.79   -403.55091 
 1930500   0.10018057    7.2015306    935324.68    935331.95   -406.17315 
 1931000   0.10026577    7.2003722    937754.11    937761.38   -402.86635 
 1931500   0.10008724    7.1989909    938863.68    938870.95   -406.83331 
 1932000   0.10016389    7.2003292    939353.02    939360.29   -405.81608 
 1932500   0.10031171    7.2003475    939249.84    939257.11     -407.051 
 1933000   0.10037522    7.2001371    939528.39    939535.65   -404.89764 
 1933500   0.10019893    7.1978202    940172.76    940180.02    -404.8453 
 1934000   0.10007522    7.1973844    940164.65    940171.92    -404.7781 
 1934500    0.1002816    7.1959256    940097.66    940104.93   -404.86658 
 1935000  0.099980437    7.1964578     940700.8    940708.07   -407.82653 
 1935500   0.10004509    7.1945925    940441.69    940448.95   -406.69721 
 1936000   0.10017137    7.1933402    940441.62    940448.88   -406.04095 
 1936500   0.10034885    7.1944396    940701.42    940708.68   -405.79285 
 1937000    0.1004571    7.1939106    940088.27    940095.53   -407.19514 
 1937500   0.10001697    7.1930665    940239.32    940246.58   -404.27282 
 1938000  0.099859722     7.191845    939608.92    939616.18   -408.76227 
 1938500   0.10101264    7.1922861    940285.08    940292.34   -405.77273 
 1939000   0.10015962    7.1909934    940527.56    940534.82   -407.05039 
 1939500   0.10024018    7.1903592    940527.43    940534.69   -404.22063 
 1940000   0.10012217    7.1898582    939095.37    939102.63   -407.58612 
 1940500   0.10032447    7.1899945    937268.05     937275.3   -407.68023 
 1941000   0.10075063    7.1895848    936462.72    936469.97   -407.28963 
 1941500   0.10002959    7.1892563     936895.7    936902.96   -402.92001 
 1942000   0.10053579    7.1903696    936323.34     936330.6   -404.69247 
 1942500   0.10028927    7.1920429    934967.18    934974.44   -403.65278 
 1943000   0.10067228    7.1903516    936022.97    936030.22   -406.73654 
 1943500   0.10054277    7.1922798    935915.41    935922.67   -403.38911 
 1944000   0.10039154    7.1904553    936737.83    936745.08   -404.82232 
 1944500    0.1002966    7.1885935    938001.95     938009.2   -405.71854 
 1945000   0.10053703     7.187888    938002.01    938009.26   -404.73298 
 1945500   0.10032479    7.1864955    938495.15    938502.41   -405.62457 
 1946000     0.100903    7.1867323     939146.8    939154.05   -403.66938 
 1946500   0.10019258    7.1857186    938923.37    938930.62   -406.45907 
 1947000   0.10084186    7.1864863    939158.69    939165.94   -402.26709 
 1947500   0.10056523      7.18651    941406.92    941414.17   -401.88813 
 1948000   0.10034083    7.1863196    941406.95     941414.2   -403.69385 
 1948500   0.10007458    7.1872345    941588.74    941595.99   -403.98489 
 1949000   0.10023685    7.1865786    941881.98    941889.23   -404.72908 
 1949500   0.10026677    7.1845897    942666.13    942673.38   -406.26754 
 1950000   0.10028782    7.1850394    946747.81    946755.06   -406.15481 
 1950500   0.10019846    7.1853956    946893.34    946900.59   -403.57965 
 1951000    0.1002902    7.1859166    949479.47    949486.73   -402.17926 
 1951500   0.10067321    7.1859898    951134.15     951141.4   -407.31107 
 1952000   0.10048131    7.1868962    952311.12    952318.38   -406.45507 
 1952500   0.10057902    7.1870825    952311.08    952318.33   -403.69342 
 1953000   0.10027147     7.187088    954934.65     954941.9   -406.03167 
 1953500    0.1001675    7.1879212    956642.27    956649.52   -404.56642 
 1954000   0.10007077    7.1884223    959205.38    959212.64   -404.34417 
 1954500  0.099931481    7.1874716    959102.62    959109.87   -402.33672 
 1955000   0.10034139    7.1855206    960578.56    960585.81   -404.38708 
 1955500   0.10027062    7.1865437    962493.44    962500.69   -405.45389 
 1956000   0.10029137    7.1867886    965409.82    965417.07   -402.93867 
 1956500   0.10026622    7.1864491     965788.1    965795.35   -405.03434 
 1957000  0.099806926    7.1881159    965788.01    965795.26   -406.74801 
 1957500  0.099743626    7.1873959    968342.07    968349.33   -404.10721 
 1958000   0.10000628    7.1889773    971117.62    971124.87   -405.58792 
 1958500   0.09983204    7.1887983    973666.28    973673.54   -404.23893 
 1959000  0.099943933    7.1903263    976800.85     976808.1   -406.64995 
 1959500  0.099793282     7.189681    976800.75    976808.01   -405.00039 
 1960000    0.1001785    7.1895151    976529.84    976537.09   -404.33645 
 1960500   0.10038279    7.1890124     978707.8    978715.06   -404.34205 
 1961000  0.099970584    7.1907297    979614.67    979621.93   -403.95622 
 1961500   0.10018581    7.1906533    981225.95    981233.21   -407.90731 
 1962000  0.099946933    7.1895046    982413.59    982420.85   -403.30072 
 1962500   0.10001414    7.1915785     982413.4    982420.65   -406.60425 
 1963000   0.10045014    7.1936837    982901.91    982909.17   -405.00943 
 1963500  0.099896566    7.1944787    983037.68    983044.95    -403.6857 
 1964000    0.1005849    7.1957846    983800.45    983807.71   -407.79664 
 1964500    0.1004013     7.195971    984005.41    984012.68   -404.76747 
 1965000      0.10022    7.1974119    984106.18    984113.44   -407.26344 
 1965500   0.10052261    7.1979141    984106.16    984113.42   -406.59468 
 1966000   0.10026752    7.1989703    983652.15    983659.41   -404.20475 
 1966500  0.099956643    7.1998939    982799.35    982806.62   -404.35707 
 1967000   0.10028675    7.1996247    980783.88    980791.15   -405.25765 
 1967500   0.10030559    7.2002914    980369.87    980377.13   -405.07646 
 1968000   0.10017885    7.2015542    979338.33     979345.6   -405.91894 
 1968500   0.10009124    7.2017083    978155.38    978162.65   -407.33391 
 1969000   0.10039437    7.2026854    975875.93     975883.2    -406.7173 
 1969500   0.10023412    7.2037591    975229.13     975236.4   -407.17095 
 1970000    0.1006999    7.2045252     971862.1    971869.37   -404.40551 
 1970500   0.10048755     7.205832    970346.75    970354.02   -404.84415 
 1971000   0.10034543    7.2053212    970346.73       970354   -404.02555 
 1971500   0.10031161    7.2069754    968333.25    968340.53   -404.04178 
 1972000   0.10037869    7.2066571    966464.03     966471.3   -404.02317 
 1972500   0.10050802    7.2077025    965316.94    965324.22   -406.35712 
 1973000   0.10017722    7.2097161    962779.18    962786.46   -404.06593 
 1973500   0.10052344    7.2115075    960579.04    960586.31   -404.92998 
 1974000   0.10035193    7.2126947     957597.5    957604.78   -404.26817 
 1974500    0.1001699    7.2125979    957597.46    957604.74   -406.05034 
 1975000   0.10009584    7.2143984    956314.48    956321.76   -405.29167 
 1975500   0.10090483    7.2145789    952821.87    952829.15   -406.46381 
 1976000   0.10035091    7.2165002    951557.48    951564.76   -405.80595 
 1976500   0.10055239     7.217059    948304.98    948312.27   -403.36402 
 1977000   0.10044829    7.2171062    946490.16    946497.45   -404.80921 
 1977500   0.10045614    7.2184727    946490.12    946497.41   -405.99351 
 1978000   0.10006856      7.22126    944095.85    944103.14    -403.4219 
 1978500   0.10060753    7.2213229    944095.82    944103.11   -404.37794 
 1979000   0.10061961    7.2212509    943405.53    943412.82   -403.57486 
 1979500    0.1005585    7.2232373     942445.2    942452.49   -404.72474 
 1980000  0.099694779    7.2230738    939620.75    939628.04   -405.62643 
 1980500   0.10031732    7.2242336    939620.65    939627.94   -404.21363 
 1981000   0.10023689    7.2260537    938318.64    938325.93   -405.51457 
 1981500   0.09998297    7.2241559    936317.04    936324.33   -404.48251 
 1982000   0.10047412    7.2269569    933771.25    933778.54    -407.0585 
 1982500   0.10028012    7.2276377    931614.71       931622   -405.66673 
 1983000   0.10007195    7.2287325    928933.16    928940.46   -404.03164 
 1983500   0.10047278    7.2293778    928933.09    928940.38   -404.78107 
 1984000   0.10105661    7.2289874     927311.9    927319.19   -407.56027 
 1984500  0.099789843    7.2315989       925112     925119.3   -403.93327 
 1985000   0.10011316    7.2298979    922560.46    922567.76   -405.23948 
 1985500   0.10046603    7.2298835    921711.19    921718.48   -406.43648 
 1986000   0.10021575    7.2288348     920197.5    920204.79     -404.274 
 1986500   0.10040758    7.2308259    920261.28    920268.58   -403.42464 
 1987000   0.10036061    7.2326711    920312.18    920319.48    -402.4042 
 1987500   0.10034173     7.232497    919115.06    919122.36   -406.11821 
 1988000   0.10025421     7.232839    920242.51    920249.81   -405.83576 
 1988500   0.10062308    7.2352732    919475.68    919482.99   -404.37675 
 1989000   0.10016209    7.2350979    918193.17    918200.47   -405.35746 
 1989500   0.10018947    7.2362113    918193.16    918200.46   -403.85879 
 1990000   0.10065434    7.2354401    917021.27    917028.57   -405.76441 
 1990500   0.10047131    7.2342303     917538.9     917546.2   -404.95697 
 1991000   0.10027758    7.2352886    918543.18    918550.48   -405.86879 
 1991500   0.10013626    7.2361969     920051.2    920058.51   -404.91428 
 1992000  0.099872695     7.235021    920875.06    920882.37   -403.80401 
 1992500   0.10013068    7.2355044    922522.27    922529.57   -405.28842 
 1993000   0.10015252    7.2346876    923670.39    923677.69   -403.74796 
 1993500   0.10026202      7.23537    925511.93    925519.23   -405.37234 
 1994000   0.10026695    7.2364273    927838.37    927845.68   -406.68576 
 1994500   0.09992437    7.2368504    928787.28    928794.59   -403.37731 
 1995000   0.10010217    7.2355939    930023.38    930030.68   -406.22732 
 1995500   0.10044859    7.2358179    931291.25    931298.55   -406.76959 
 1996000   0.10021008    7.2360507    931869.19     931876.5   -404.41292 
 1996500   0.10028936    7.2365203    931869.22    931876.53   -406.12747 
 1997000   0.10025482    7.2368707    931923.44    931930.74   -406.86804 
 1997500    0.1000374    7.2362065    932406.17    932413.48   -406.68025 
 1998000   0.10013281    7.2357227    932166.92    932174.22   -403.49289 
 1998500   0.09993255    7.2357732     932603.9     932611.2   -404.09027 
 1999000   0.10031819    7.2346865    932603.94    932611.24   -406.56474 
 1999500   0.10015423    7.2352599    934396.35    934403.65   -404.62345 
 2000000   0.10019622    7.2362555    935951.58    935958.89   -405.22169 
 2000010   0.10031708    7.2364264    935951.57    935958.87   -405.59207 
Loop time of 154300 on 640 procs for 2000010 steps with 264470 atoms

Pair  time (%) = 50973.9 (33.0357)
Bond  time (%) = 44024.1 (28.5316)
Neigh time (%) = 312.169 (0.202314)
Comm  time (%) = 11211.2 (7.26585)
Outpt time (%) = 274.852 (0.178129)
Other time (%) = 47503.4 (30.7865)

Nlocal:    413.234 ave 1217 max 236 min
Histogram: 151 305 139 10 5 3 7 8 9 3
Nghost:    3846.32 ave 7651 max 2265 min
Histogram: 136 136 24 192 82 15 20 15 15 5
Neighs:    64910.7 ave 110681 max 25997 min
Histogram: 20 66 77 104 89 98 86 65 28 7

Total # of neighbors = 41542850
Ave neighs/atom = 157.08
Ave special neighs/atom = 10.9988
Neighbor list builds = 6604
Dangerous builds = 0
