LAMMPS (9 Jan 2009)
# 23 solvent components diffusion using DPD
include         seeds.txt
variable  seed1  equal 5939
variable  seed2  equal 84796
variable  seed3  equal 13213
variable  seed4  equal 7666
variable  seed5  equal 11665
variable        nthermo equal 500
dimension       3
boundary	p f p
units           lj
variable        force equal 0.5
atom_style      cc/full
neighbor        1.0 bin
neigh_modify    every 1 check yes exclude type 1 4 exclude type 3 4 exclude type 4 4 exclude type 1 5 exclude type 2 5 exclude type 3 5 exclude type 4 5 exclude type 5 5

read_restart	data/restart.rheo.900000
  orthogonal box = (-5 0 -10) to (105 20 10)
  32 by 4 by 5 processor grid
  250470 atoms
  212292 bonds
  141528 angles
  212292 dihedrals
  7 = max # of 1-2 neighbors
  35 = max # of 1-3 neighbors
  210 = max # of 1-4 neighbors
  420 = max # of special neighbors

group           cells union rbc platelet bank
72072 atoms in group cells

bond_style      cell
bond_coeff      1 rbc 0.1 1.8 100.0 2.0 5.47 16.41 0.0
bond_coeff      2 plat 0.1 1.8 10000.0 2.0 0.0 0.0 0.0
bond_coeff      3 bond 2.222e4 128.0e-3 0.0 0.0 0.0 0.3 0 #dummy bonds defined here for future use
bond_coeff      4 bond 2.222e4 128.0e-3 0.0 0.0 0.0 0.3 0
bond_coeff      5 bond 2.222e4 128.0e-3 0.0 0.0 0.0 0.0 0
bond_coeff      6 bond 2.222e4 128.0e-3 0.0 0.0 0.0 0.0 0

angle_style     area/volume
angle_coeff     1 4900.0 132.8686  5000.0 127.4571 100.0 0.
angle_coeff     2 5000.0 31.160    5000.0 12.006   100.0 0.

dihedral_style  bend
dihedral_coeff  1 6.025 0.0 0.0
dihedral_coeff  2 100.0 0.0 0.0

pair_style      hybrid/overlay dpd 1.0 ${seed1} dpd/misc 1.0 ${seed2} cc 1.0 ${seed3} 0 105
pair_style      hybrid/overlay dpd 1.0 5939 dpd/misc 1.0 ${seed2} cc 1.0 ${seed3} 0 105
pair_style      hybrid/overlay dpd 1.0 5939 dpd/misc 1.0 84796 cc 1.0 ${seed3} 0 105
pair_style      hybrid/overlay dpd 1.0 5939 dpd/misc 1.0 84796 cc 1.0 13213 0 105
pair_coeff      1 1 dpd 5.0 20.0 2.0 0.2 1.58
pair_coeff      1 2 dpd 0.0 10.0 1.414 0.2 1.5
pair_coeff      1 3 dpd 0.0 45.0 3.0 0.2 1.5
pair_coeff      1 4 dpd 0.0 0.0 0.0 0.25 1.0
pair_coeff      1 5 dpd 0.0 0.0 0.0 0.25 1.0
pair_coeff      2 2 dpd 2.5 10.0 1.414 0.2 1.0
pair_coeff      2 3 dpd 2.5 10.0 1.414 0.2 1.0
pair_coeff      2 4 dpd 0.0 0.0 0.0 0.25 1.0
pair_coeff      2 5 dpd 0.0 0.0 0.0 0.25 1.0
pair_coeff      3 3 dpd 10.0 10.0 1.414 0.2 1.0
pair_coeff      3 4 dpd 0.0 0.0 0.0 0.25 1.0
pair_coeff      3 5 dpd 0.0 0.0 0.0 0.25 1.0
pair_coeff      4 4 dpd 0.0 0.0 0.0 0.25 1.0
pair_coeff      4 5 dpd 0.0 0.0 0.0 0.25 1.0
pair_coeff      5 5 dpd 0.0 0.0 0.0 0.25 1.0
pair_coeff      2 2 dpd/misc 2 5.0 2.0 1.0 1.0
pair_coeff      2 3 dpd/misc 2 5.0 2.0 1.0 1.0
pair_coeff      3 3 dpd/misc 2 5.0 2.0 0.95 1.0
#pair_coeff      1 1 dpd/misc 4 0.0 20.0 2.0 0.2 1.58 11
include         coeff.in
#             i j a     ga     si    s1    rc   rcc   Ri  Di    s2
pair_coeff    1 1 cc  0.00  0.00  0.00  0.40  1.58  1.00  0.00	1.730E-02	2.00	0.00	1.501E-02	2.00	0.00	8.867E-03	2.00	0.00	5.995E-03	2.00	0.00	8.508E-03	2.00	0.00	1.501E-02	2.00	0.00	2.125E-02	2.00	0.00	1.501E-02	2.00	0.00	1.802E-02	2.00	0.00	1.350E-02	2.00	0.00	3.662E-03	2.00	0.00	5.924E-03	2.00	0.00	1.274E-02	2.00	0.00	9.047E-03	2.00	0.00	1.479E-02	2.00	0.00	1.741E-02	2.00	0.00	1.454E-02	2.00	0.00	1.432E-02	2.00	0.00	1.569E-02	2.00	0.00	4.000E-04	2.00	0.00	8.710E-02	2.00	0.00	0.000E+00 2.00  0.00  0.000E+00 2.00
pair_coeff    1 2 cc  0.00  0.00  0.00  0.40  1.58  1.00  0.00	1.730E-02	2.00	0.00	1.501E-02	2.00	0.00	8.867E-03	2.00	0.00	5.995E-03	2.00	0.00	8.508E-03	2.00	0.00	1.501E-02	2.00	0.00	2.125E-02	2.00	0.00	1.501E-02	2.00	0.00	1.802E-02	2.00	0.00	1.350E-02	2.00	0.00	3.662E-03	2.00	0.00	5.924E-03	2.00	0.00	1.274E-02	2.00	0.00	9.047E-03	2.00	0.00	1.479E-02	2.00	0.00	1.741E-02	2.00	0.00	1.454E-02	2.00	0.00	1.432E-02	2.00	0.00	1.569E-02	2.00	0.00	4.000E-04	2.00	0.00	8.710E-02	2.00	0.00	0.000E+00 2.00  0.00  0.000E+00 2.00

#time integrater
fix		1  move nve
fix		2  chemical cc/verlet x 0.0 initial_cc.dat
#add reaction
fix		31 solvent cc/reaction 2 33 25 65 0 react_rates.dat
fix		32 platelet cc/reaction 3 33 25 65 0 react_rates.dat
#add body force to drive the flow + bounce-back + no-slip
fix     40 solvent solid/bound 0 bc_channel.dat
fix     41 rbc solid/bound 0 bc_channel_rbc.dat
fix     42 platelet solid/bound 0 bc_channel_plat.dat
fix		43 solvent solid/bound 1 bc_channel_cc.dat 18
fix     7  platelet com/gyrat 100 1 1 0 data/traj/plat 1 3 SE
fix		8  move addforce 0 ${force} 0.0 0.0
fix		8  move addforce 0 0.5 0.0 0.0
variable c_cut    equal 0.6
variable b_cut    equal 0.6
variable ks       equal 9.1e3
variable r0       equal 0.128
variable kf0      equal 1.18e-3
variable sigf     equal 1.8e-3
variable kr0      equal 5.0e-7
variable sigr     equal 1.62e-3
variable T        equal 0.1

fix     91 adh bond/create/AD 2 4 ${c_cut} 3 ${ks} ${r0} ${kf0} ${sigf} ${T} 10 5 1 ${seed4} catch
fix     91 adh bond/create/AD 2 4 0.6 3 ${ks} ${r0} ${kf0} ${sigf} ${T} 10 5 1 ${seed4} catch
fix     91 adh bond/create/AD 2 4 0.6 3 9100 ${r0} ${kf0} ${sigf} ${T} 10 5 1 ${seed4} catch
fix     91 adh bond/create/AD 2 4 0.6 3 9100 0.128 ${kf0} ${sigf} ${T} 10 5 1 ${seed4} catch
fix     91 adh bond/create/AD 2 4 0.6 3 9100 0.128 0.00118 ${sigf} ${T} 10 5 1 ${seed4} catch
fix     91 adh bond/create/AD 2 4 0.6 3 9100 0.128 0.00118 0.0018 ${T} 10 5 1 ${seed4} catch
fix     91 adh bond/create/AD 2 4 0.6 3 9100 0.128 0.00118 0.0018 0.1 10 5 1 ${seed4} catch
fix     91 adh bond/create/AD 2 4 0.6 3 9100 0.128 0.00118 0.0018 0.1 10 5 1 7666 catch
fix     92 adh bond/break/AD ${b_cut} 3 ${ks} ${r0} ${kr0} ${sigr} ${T} ${seed5} slip
fix     92 adh bond/break/AD 0.6 3 ${ks} ${r0} ${kr0} ${sigr} ${T} ${seed5} slip
fix     92 adh bond/break/AD 0.6 3 9100 ${r0} ${kr0} ${sigr} ${T} ${seed5} slip
fix     92 adh bond/break/AD 0.6 3 9100 0.128 ${kr0} ${sigr} ${T} ${seed5} slip
fix     92 adh bond/break/AD 0.6 3 9100 0.128 5e-07 ${sigr} ${T} ${seed5} slip
fix     92 adh bond/break/AD 0.6 3 9100 0.128 5e-07 0.00162 ${T} ${seed5} slip
fix     92 adh bond/break/AD 0.6 3 9100 0.128 5e-07 0.00162 0.1 ${seed5} slip
fix     92 adh bond/break/AD 0.6 3 9100 0.128 5e-07 0.00162 0.1 11665 slip
#fix             93 platelet bond/create/AD 2 2 0.5 4 2.222e5 0.0 1.18 1.31e-3 0.1 10 1 1 1354 catch
#fix             94 platelet bond/break/AD 0.3 4 2.222e4 0.0 5.0e-7 1.62e-3 0.1 3098 slip
fix		101 platelet molecule
fix		102 cells influx 0.41552 1000 3 2 5 1.0 bank 7 y -5 6.5 0 20 -10 10

#statistics
fix             11 solvent stat/velT box 100 40 10 0 1 50000 data/velT  9   #9  for Thrombin
fix             12 solvent stat/velT box 100 40 10 0 1 50000 data/velT 10   #10 for Prothrombin
fix             13 solvent stat/velT box 100 40 10 0 1 50000 data/velT 11   #11 for Fibrin
fix             14 solvent stat/velT box 100 40 10 0 1 50000 data/velT 12   #12 for Fibrinogen
fix             15 solvent stat/velT box 100 40 10 0 1 50000 data/velT 15   #15 for Anti Thrombin-III
fix             16 solvent stat/velT box 100 40 10 0 1 50000 data/velT 21   #21 for ADP
fix             17 platelet stat/dens box 100 40 10 0 1 50000 data/den_plat
fix             18 move stat/all box 30 40 20 0 1 2000 30 60 0 20 -10 10
fix             20 solvent stat/velT box 100 40 10 0 1 50000 data/velT 1    #1 for IXa
fix             21 solvent stat/velT box 100 40 10 0 1 50000 data/velT 2    #2 for IX
fix             22 solvent stat/velT box 100 40 10 0 1 50000 data/velT 7    #7 for Xa
fix             23 solvent stat/velT box 100 40 10 0 1 50000 data/velT 8    #8 for X

reset_timestep	0
timestep        0.001

compute         mythermo solvent temp/partial 0 1 1
thermo_modify   temp mythermo flush yes lost warn
thermo          ${nthermo}
thermo          500

dump            1 rbc atom 20000 data/dump.rbc.lammpstrj
dump            2 adh atom 1000 data/dump.plat.lammpstrj
dump            3 rbc custom 20000 data/rbc.lammpstrj id mol x y z
dump            4 platelet custom 1000 data/plat.lammpstrj id mol x y z

restart		50000 data/restart
run 		2000010
Memory usage per processor = 37.6409 Mbytes
Step Temp E_pair E_mol TotEng Press 
       0   0.10039034    7.6004077      1448454    1448461.7   -857.26468 
     500  0.099933028    7.5918064    1448458.3      1448466   -860.34364 
    1000   0.10077823    7.5986958    1447852.9    1447860.6   -858.60067 
    1500   0.10024152    7.5986971    1448059.6    1448067.3   -860.87044 
    2000   0.10038019    7.6013881    1448598.2    1448605.9   -860.48457 
    2500   0.10015823    7.6028006    1450284.7    1450292.4   -860.43871 
    3000    0.1004982    7.6028086    1450363.7    1450371.4    -859.2651 
    3500   0.10018899    7.6035284    1448266.9    1448274.6   -860.56335 
    4000    0.1001086    7.6051039    1448267.3    1448274.9   -857.59599 
    4500   0.10065095    7.6048201    1448014.6    1448022.3   -859.86727 
    5000   0.10068213      7.60485    1446704.1    1446711.8   -858.63673 
    5500   0.10067181    7.6051413    1448408.1    1448415.8   -858.21577 
    6000   0.10043264    7.6066015    1448137.2    1448144.8   -857.33163 
    6500   0.10032748    7.6065181    1448447.6    1448455.3   -860.18077 
    7000   0.10003989    7.6081067    1448610.1    1448617.8   -859.49211 
    7500   0.10061612    7.6092152    1448610.5    1448618.2    -861.4198 
    8000   0.10019226    7.6085252    1446414.1    1446421.8   -858.64514 
    8500   0.10032922    7.6077984    1444106.7    1444114.3   -858.46775 
    9000   0.10071618    7.6062645    1445471.1    1445478.7   -858.31731 
    9500   0.10036159    7.6072691    1446590.9    1446598.6   -860.30115 
   10000   0.10005355    7.6055147    1447792.1    1447799.8   -862.30327 
   10500    0.1004686    7.6072796    1447792.3      1447800    -860.4794 
   11000   0.10028733    7.6070797    1451689.5    1451697.1   -857.67684 
   11500  0.099833236    7.6075934    1453807.8    1453815.5   -858.14316 
   12000   0.10054976    7.6070539    1457152.2    1457159.8    -859.3724 
   12500   0.10059734    7.6075628    1457480.6    1457488.3   -860.72538 
   13000   0.10032999    7.6072199    1462315.6    1462323.3   -857.70433 
   13500   0.10003536    7.6078145    1464387.5    1464395.2   -859.07641 
   14000   0.10011289    7.6092285    1464387.6    1464395.3   -859.67779 
   14500    0.1001491     7.608607    1467535.8    1467543.5   -859.17674 
   15000   0.10023677    7.6099321    1471242.1    1471249.7   -860.55154 
   15500   0.10034143    7.6099051    1474765.6    1474773.2   -857.25852 
   16000   0.10051884    7.6121879    1477742.1    1477749.8   -860.44269 
   16500   0.10034996    7.6112071      1480962    1480969.7   -860.50232 
   17000   0.10020441    7.6115688      1480962    1480969.7   -861.25843 
   17500   0.10042066    7.6122242    1482502.9    1482510.6   -859.42433 
   18000   0.10019314    7.6128684    1482387.3      1482395   -857.84332 
   18500   0.10073005     7.613445    1484619.4    1484627.1   -858.39912 
   19000   0.10042827    7.6127009    1485433.8    1485441.4    -859.2707 
   19500   0.10016843    7.6139944    1486440.1    1486447.8    -863.0371 
   20000     0.100552    7.6135595    1486472.8    1486480.5   -860.49026 
   20500   0.10007831    7.6132634    1486472.9    1486480.6   -860.18351 
   21000   0.10033314    7.6138628      1484931    1484938.7   -858.23741 
   21500    0.1001063    7.6143956    1486363.9    1486371.6   -859.22661 
   22000   0.10029667    7.6147367    1484997.1    1485004.8   -860.10434 
   22500   0.10041608    7.6161136    1486087.6    1486095.3    -860.1901 
   23000   0.10007169    7.6147603    1485876.8    1485884.5   -858.87375 
   23500   0.10036326    7.6142818    1485876.8    1485884.5   -859.58814 
   24000   0.10069313    7.6149642    1486223.1    1486230.8   -858.77792 
   24500   0.10000687    7.6149364    1485586.8    1485594.4   -859.67211 
   25000   0.10061584    7.6142377    1484518.4    1484526.1   -860.81863 
   25500   0.10019924     7.614917    1484688.6    1484696.3   -858.22458 
   26000   0.10070009    7.6141877    1483393.7    1483401.4   -861.95039 
   26500   0.10058476    7.6146171    1483393.8    1483401.5   -859.16965 
   27000   0.10038368    7.6149942    1483234.7    1483242.4   -859.36253 
   27500   0.10081482    7.6136831    1481721.1    1481728.8   -860.20558 
   28000   0.10040588    7.6118669    1481234.2    1481241.9   -859.39298 
   28500   0.10066359    7.6122295    1477448.9    1477456.6   -862.72316 
   29000    0.1000845    7.6131172    1474897.9    1474905.6   -860.27681 
   29500   0.10001405    7.6131504    1474898.1    1474905.8   -861.03613 
   30000  0.099997965    7.6142932    1473961.6    1473969.3   -861.32024 
   30500   0.09998227    7.6162687      1472279    1472286.6   -859.77924 
   31000   0.10022941    7.6153917    1469142.2    1469149.9   -861.32093 
   31500      0.10021    7.6159088    1468583.6    1468591.3   -858.39585 
   32000   0.10006289     7.616338    1466414.4      1466422   -861.94412 
   32500    0.1006859    7.6170592    1466414.5    1466422.2    -860.6602 
   33000    0.1005078    7.6159603    1463919.3      1463927   -861.65569 
   33500   0.10006026    7.6171078    1463532.6    1463540.3    -860.5181 
   34000   0.10057044    7.6175493    1462948.2    1462955.8   -858.40965 
   34500   0.10048324    7.6168714    1464105.7    1464113.4   -859.27742 
   35000   0.10072008    7.6183653    1464131.8    1464139.5   -857.47894 
   35500    0.1001044    7.6198567      1463686    1463693.6   -860.79997 
   36000  0.099992759    7.6200745    1463685.9    1463693.6   -862.39994 
   36500   0.10036439    7.6190941    1462226.9    1462234.6   -860.79729 
   37000   0.10006475    7.6201214    1461952.4    1461960.1    -860.3345 
   37500   0.10070281    7.6215167    1460059.3    1460066.9   -861.25666 
   38000    0.1002912    7.6215418    1458540.9    1458548.6   -859.33571 
   38500   0.10009703    7.6204688    1456795.1    1456802.8   -859.17274 
   39000   0.10047047    7.6213683      1456795    1456802.7    -859.8887 
   39500   0.10011699    7.6204852    1453892.8    1453900.5   -859.85997 
   40000   0.10046488     7.620476    1453310.9    1453318.6   -859.52834 
   40500  0.099886259    7.6215681    1450296.8    1450304.4   -860.60248 
   41000   0.09971119    7.6228329    1448176.4    1448184.1   -861.72633 
   41500   0.10053524    7.6228038    1445156.5    1445164.2   -859.35199 
   42000  0.099999656    7.6218997    1441504.5    1441512.2   -859.06401 
   42500   0.10049245    7.6222117    1441504.5    1441512.2   -860.37489 
   43000   0.10051244    7.6207515      1438163    1438170.7   -861.50724 
   43500   0.10023842    7.6213393    1433642.7    1433650.4   -860.96075 
   44000   0.10066514    7.6210579    1430411.2    1430418.9   -862.21766 
   44500   0.10049533    7.6207507    1430553.5    1430561.2   -860.88234 
   45000   0.10069159    7.6200361    1428239.4    1428247.1   -859.84947 
   45500   0.10025553    7.6214405    1428239.4    1428247.1   -860.33662 
   46000    0.1003748    7.6221522    1427356.6    1427364.3    -858.9311 
   46500   0.10094727    7.6232701    1426563.6    1426571.3   -859.37708 
   47000   0.10045749    7.6220097      1425528    1425535.7   -860.95985 
   47500   0.10000866    7.6229592    1425811.3      1425819   -856.38138 
   48000   0.10026198    7.6233632    1425427.3      1425435    -858.8687 
   48500   0.10059836    7.6227426    1425309.1    1425316.8   -860.31188 
   49000   0.10067366    7.6238632    1425309.1    1425316.8    -859.5468 
   49500   0.10064611    7.6246147    1427306.7    1427314.4   -862.01967 
   50000   0.10069681    7.6246928    1430882.1    1430889.8   -859.01758 
   50500  0.099779396    7.6247622    1430882.2    1430889.9    -861.5821 
   51000  0.099721238    7.6265232    1432804.6    1432812.3   -857.97978 
   51500   0.10033796    7.6259373    1437321.6    1437329.3   -857.06488 
   52000   0.10061868    7.6264786    1439747.6    1439755.3   -858.92323 
   52500   0.10024243    7.6279197    1443807.5    1443815.2   -859.65225 
   53000   0.10044946    7.6289424    1448177.6    1448185.3   -859.22653 
   53500   0.10053938    7.6280477    1448177.8    1448185.5   -864.23317 
   54000    0.1002264     7.627526    1451705.7    1451713.4   -860.68453 
   54500   0.10026896    7.6285695    1455960.4    1455968.1   -861.06194 
   55000   0.10057534    7.6299572      1457750    1457757.7   -860.53564 
   55500   0.10018059      7.62967    1462641.5    1462649.2   -860.76803 
   56000   0.10030169    7.6299904    1467032.7    1467040.4   -858.25863 
   56500   0.10042751    7.6316006    1467032.6    1467040.3   -856.28482 
   57000   0.10055974    7.6321812    1470625.4    1470633.1   -858.63711 
   57500   0.10060054    7.6324326    1472502.9    1472510.6   -862.19148 
   58000   0.10010386    7.6333737    1473635.3      1473643   -859.35353 
   58500   0.10018829     7.633642    1476534.8    1476542.5   -860.21947 
   59000  0.099854994    7.6326864    1479033.1    1479040.8   -860.97389 
   59500   0.10017494    7.6337712    1483497.6    1483505.3   -860.29718 
   60000   0.10005839    7.6331437    1483497.6    1483505.3   -861.11663 
   60500   0.10050395    7.6345081    1485201.1    1485208.8   -860.86648 
   61000   0.10030494    7.6344625    1488727.9    1488735.6   -860.58223 
   61500   0.10014969    7.6349863      1492454    1492461.7   -858.89177 
   62000   0.10050821    7.6350574    1494757.3      1494765    -862.0771 
   62500    0.1003602    7.6351575      1496729    1496736.7   -858.85964 
   63000   0.10025374    7.6366642    1496728.8    1496736.6   -859.07879 
   63500   0.10016067    7.6363962      1500303    1500310.7   -859.50162 
   64000   0.10044076    7.6366062    1501382.8    1501390.5   -858.36728 
   64500  0.099962672    7.6361273    1502628.1    1502635.8   -860.65022 
   65000   0.10010228    7.6355121    1502156.8    1502164.6   -859.49121 
   65500    0.1001863    7.6366974    1502524.9    1502532.6   -861.64421 
   66000    0.1003879    7.6355651    1501222.8    1501230.5   -859.56226 
   66500  0.099933723    7.6354372    1500546.1    1500553.8   -857.45456 
   67000   0.10062396    7.6356517      1500546    1500553.7   -861.30071 
   67500   0.10023298    7.6351229    1499006.1    1499013.8   -860.12083 
   68000   0.10050941    7.6339075    1498760.7    1498768.4   -859.92361 
   68500   0.10010339    7.6341661    1497049.3      1497057   -861.02765 
   69000   0.10027605     7.635877    1493583.7    1493591.5   -857.50057 
   69500   0.10008563    7.6343903    1494627.8    1494635.6   -858.53081 
   70000   0.10011012    7.6365179    1492709.1    1492716.8   -861.61483 
   70500   0.10041969    7.6360478    1491690.2    1491697.9   -860.65516 
   71000    0.1005549    7.6374887    1491525.8    1491533.5   -862.50251 
   71500    0.1005362    7.6365063    1488331.3      1488339   -858.27306 
   72000   0.10004122    7.6376994    1490019.8    1490027.5   -860.42268 
   72500   0.10036875    7.6400543    1490019.8    1490027.5    -859.9303 
   73000   0.10039728     7.639934    1488704.9    1488712.6   -860.54256 
   73500   0.10010462    7.6399737    1489042.3      1489050   -860.98703 
   74000   0.10068678    7.6395907    1487577.4    1487585.1   -861.27214 
   74500   0.10022725    7.6396335    1484541.8    1484549.5   -860.45266 
   75000   0.10029748    7.6405187    1481888.3      1481896   -861.61094 
   75500   0.10060499    7.6414057    1478188.3      1478196   -861.59472 
   76000   0.10020628    7.6398858    1478188.3      1478196   -856.57384 
   76500    0.1003048    7.6397084    1476739.1    1476746.8   -856.55152 
   77000    0.1008369    7.6402683    1475929.6    1475937.3   -859.50113 
   77500   0.10014157     7.642326    1475316.5    1475324.2   -858.50583 
   78000   0.10013478    7.6433363    1474654.2      1474662   -858.79888 
   78500   0.10036378    7.6431367    1476178.9    1476186.6   -858.23536 
   79000   0.10011551    7.6445843    1474912.7    1474920.4   -859.13585 
   79500   0.10041973    7.6439978    1475921.2    1475928.9   -860.61922 
   80000   0.10033684    7.6415397    1477468.7    1477476.4   -858.71393 
   80500   0.10049766    7.6420938      1478068    1478075.7   -858.19028 
   81000   0.10049055    7.6424451      1478068    1478075.7   -859.23822 
   81500   0.10016586    7.6424056    1478512.4    1478520.2   -863.20766 
   82000   0.10028334    7.6425631    1478795.3      1478803   -858.62728 
   82500   0.10030381    7.6430206    1480955.4    1480963.1   -859.08555 
   83000   0.10051817     7.642835    1480594.2      1480602   -862.94616 
   83500   0.10035737    7.6421802      1481087    1481094.7   -858.18683 
   84000   0.10044087    7.6432289    1482360.5    1482368.2    -859.4647 
   84500   0.10004038    7.6446648    1480712.8    1480720.5   -856.92989 
   85000   0.10043638    7.6443251    1480712.8    1480720.5   -859.15115 
   85500   0.10047551    7.6446709    1478195.2    1478202.9   -860.24658 
   86000  0.099921981    7.6435345    1478147.6    1478155.3   -861.45317 
   86500   0.10009663    7.6442491    1478925.2    1478932.9   -859.88545 
   87000   0.10022095    7.6447815    1477865.3      1477873   -859.96901 
   87500   0.10052547    7.6443018    1475297.4    1475305.1   -859.78261 
   88000   0.10022388    7.6454835    1475940.8    1475948.5   -859.21434 
   88500   0.10036842    7.6452118    1475940.8    1475948.5   -858.75865 
   89000  0.099840517    7.6458795    1474299.9    1474307.6   -862.02298 
   89500   0.10037057    7.6456851    1474989.6    1474997.3   -861.46084 
   90000   0.10019401    7.6454775    1478025.8    1478033.5   -860.37663 
   90500   0.10000321    7.6457968    1478604.2    1478611.9   -858.48275 
   91000  0.099936234    7.6470056    1481076.8    1481084.5   -858.91376 
   91500   0.10040216    7.6466289    1481076.9    1481084.6   -858.80097 
   92000   0.10037167    7.6458226    1484488.6    1484496.4   -858.65692 
   92500   0.10014679    7.6454824    1485148.8    1485156.6   -858.82054 
   93000   0.10032279    7.6467943    1487776.2    1487783.9   -857.91729 
   93500   0.10019133    7.6476046      1489567    1489574.7   -858.68593 
   94000   0.10014316    7.6475415      1493391    1493398.8   -858.37251 
   94500   0.10000417    7.6468479    1493078.7    1493086.4   -860.31461 
   95000   0.10025779    7.6474833    1493078.7    1493086.4   -860.76075 
   95500   0.10054545    7.6489293    1494463.3    1494471.1   -859.61269 
   96000    0.1002078    7.6479963    1494551.7    1494559.4   -858.71367 
   96500   0.10022453    7.6488817    1494263.6    1494271.3   -856.90815 
   97000   0.10035971    7.6484971    1491561.7    1491569.5   -860.06241 
   97500   0.10015069    7.6484009    1492748.8    1492756.5   -860.00849 
   98000   0.10023352    7.6480677    1492748.7    1492756.4   -858.27332 
   98500   0.10013013    7.6493704    1493175.6    1493183.4   -861.21516 
   99000   0.10038657    7.6499233    1492961.7    1492969.4   -860.73001 
   99500  0.099998181    7.6509976    1494148.3      1494156   -859.73396 
  100000   0.10006892    7.6507258    1493952.6    1493960.4   -860.31947 
  100500   0.10032578    7.6517635    1493952.6    1493960.4   -860.46613 
  101000   0.10001821    7.6519536    1495733.9    1495741.7   -858.75116 
  101500   0.10058987    7.6532683    1494674.1    1494681.9   -859.29496 
  102000   0.10075502    7.6539679    1495369.1    1495376.8    -859.6574 
  102500  0.099763629    7.6547759    1493851.1    1493858.9   -859.05503 
  103000   0.10000514    7.6537483    1492173.9    1492181.7    -857.8861 
  103500   0.10092566     7.653182    1492173.9    1492181.6    -862.6377 
  104000   0.10027325    7.6534159    1491619.9    1491627.7   -859.40924 
  104500    0.1004182    7.6531201      1492224    1492231.8   -860.92617 
  105000  0.099931715    7.6535661      1492498    1492505.7   -859.62388 
  105500   0.10004839     7.653262    1490477.7    1490485.4   -859.86572 
  106000   0.10064857    7.6536251    1489998.6    1490006.3   -860.35044 
  106500  0.099783816    7.6545009    1489998.6    1490006.3   -860.90071 
  107000    0.1000329    7.6526404    1490383.5    1490391.3   -859.61048 
  107500   0.10036122    7.6522632      1490183    1490190.7   -859.81693 
  108000   0.10017716    7.6536044    1490953.4    1490961.1   -859.36777 
  108500   0.10053371    7.6530656    1491985.2    1491992.9   -858.13819 
  109000   0.10041822    7.6544033      1491985    1491992.7   -860.10914 
  109500  0.099971041    7.6527985    1489287.2    1489294.9   -862.38972 
  110000   0.10014042     7.652034    1488045.9    1488053.6   -859.08122 
  110500   0.10018301    7.6540901      1484866    1484873.7   -858.85579 
  111000   0.10064957     7.655474    1481994.5    1482002.2   -860.52443 
  111500    0.1004823    7.6568433    1481849.6    1481857.3   -862.84787 
  112000   0.10020153     7.657706    1478185.5    1478193.2   -862.81025 
  112500   0.10029531    7.6564073    1478185.6    1478193.3   -860.53679 
  113000   0.10098698    7.6596535    1479148.2      1479156   -858.31618 
  113500   0.10004948    7.6579119      1475499    1475506.7   -860.89721 
  114000   0.10039608    7.6570818    1471239.2    1471246.9   -859.97531 
  114500   0.10041199    7.6590266    1469115.5    1469123.3   -860.56598 
  115000   0.10041273     7.658992    1466238.7    1466246.5   -857.62771 
  115500    0.1001554    7.6605728    1466238.7    1466246.4   -860.95487 
  116000   0.10059222     7.661548    1463378.3      1463386   -860.94305 
  116500   0.10035982    7.6619672    1458833.4    1458841.2   -862.17499 
  117000   0.10008279    7.6627448    1457569.1    1457576.8   -859.87079 
  117500  0.099749864    7.6626872      1457154    1457161.8   -858.19575 
  118000   0.10027439    7.6636858      1456664    1456671.7   -857.90165 
  118500   0.10011057    7.6638074    1456043.8    1456051.5   -859.90563 
  119000   0.10051876    7.6634502    1456043.8    1456051.5   -858.14687 
  119500   0.10084434    7.6648424    1454591.3    1454599.1   -860.78645 
  120000   0.10023841    7.6649651    1456708.3      1456716   -862.11624 
  120500   0.10039621    7.6644577    1457733.2      1457741   -858.39567 
  121000   0.10033174    7.6634474    1457757.6    1457765.3   -858.73222 
  121500   0.10020758    7.6630711    1460874.1    1460881.9   -858.56051 
  122000   0.10043077    7.6635411    1460874.2    1460881.9   -859.90254 
  122500   0.10072273    7.6642956    1461744.5    1461752.3   -860.50562 
  123000   0.10000071     7.663253    1465535.4    1465543.1     -858.553 
  123500   0.10033928    7.6637426    1468350.8    1468358.6   -861.61474 
  124000   0.10071168    7.6639015    1470886.2    1470893.9   -858.79443 
  124500    0.1000319    7.6643941      1474895    1474902.8   -859.72102 
  125000   0.10023234    7.6640247    1478401.2    1478408.9   -860.95204 
  125500    0.1004463    7.6635625    1478401.2      1478409   -861.12625 
  126000   0.10042292    7.6622366    1483881.1    1483888.8   -859.81383 
  126500    0.1001646    7.6637494    1486960.1    1486967.8   -861.53165 
  127000   0.10039242    7.6626645    1490700.9    1490708.6   -860.93705 
  127500   0.10042158    7.6639344    1492479.7    1492487.4   -859.06383 
  128000   0.10031093     7.662944    1492479.7    1492487.4   -860.43287 
  128500  0.099945171    7.6650094    1495577.5    1495585.2   -859.01401 
  129000   0.10096378    7.6641408      1496374    1496381.7   -858.72779 
  129500   0.10034941    7.6634229      1496941    1496948.8   -860.25484 
  130000   0.10034579    7.6621052    1497004.3      1497012   -858.82626 
  130500   0.10011668    7.6624855    1498977.4    1498985.2    -858.9024 
  131000   0.10021952     7.661515    1498977.4    1498985.1   -860.92148 
  131500   0.10028046    7.6610652      1500680    1500687.7   -858.53674 
  132000   0.10044018    7.6617618    1500984.2    1500991.9   -858.08119 
  132500   0.10000852    7.6619598      1502733    1502740.7   -858.66443 
  133000   0.10057828    7.6619005    1498833.4    1498841.1   -859.49033 
  133500     0.100457    7.6626148    1496691.9    1496699.6   -860.11364 
  134000   0.10047057    7.6639354    1497355.1    1497362.8   -859.91479 
  134500   0.10013661    7.6636508      1498997    1499004.7   -859.17704 
  135000   0.10041464    7.6627164    1498306.2      1498314   -858.19046 
  135500   0.10006409    7.6630496    1499818.4    1499826.1   -860.39623 
  136000   0.10030833    7.6611195    1499691.8    1499699.5   -857.12682 
  136500   0.10018736    7.6614713    1500117.5    1500125.3   -860.09187 
  137000    0.1001342    7.6618502    1499994.3    1500002.1   -859.34381 
  137500   0.10012041    7.6607304    1503002.2    1503009.9   -860.59925 
  138000   0.10038049    7.6605083    1505044.2      1505052   -859.97993 
  138500   0.10053813    7.6590783    1505881.3      1505889   -859.01393 
  139000   0.10027487    7.6610929    1503966.7    1503974.4   -862.61297 
  139500   0.10041292     7.660642    1503966.6    1503974.4   -863.32335 
  140000   0.10032405    7.6597619      1504465    1504472.7   -861.05497 
  140500   0.10013676     7.658658    1502838.3      1502846   -860.14401 
  141000    0.1004374    7.6589445    1499660.5    1499668.2   -860.41735 
  141500   0.10032749    7.6597859    1499972.6    1499980.3    -859.5996 
  142000   0.10047877    7.6595366    1493433.4    1493441.2   -860.80484 
  142500   0.10014609     7.659054    1493433.4    1493441.1   -860.28886 
  143000    0.1003146    7.6588236    1491373.7    1491381.4   -860.29986 
  143500   0.10035708    7.6594747    1488268.4    1488276.1   -859.96489 
  144000  0.099923659    7.6607432    1484714.6    1484722.3   -859.71095 
  144500   0.10040127    7.6604217    1481360.7    1481368.5   -859.67917 
  145000   0.10013121    7.6601242    1477596.3      1477604   -861.68975 
  145500   0.10026502    7.6595642    1477596.3    1477604.1   -858.81444 
  146000   0.09994958    7.6606071    1474647.6    1474655.3   -859.68426 
  146500    0.1006642     7.661908    1471493.3      1471501    -860.1972 
  147000   0.09992984    7.6619055    1469961.9    1469969.7   -858.97038 
  147500    0.1004392    7.6628776    1469374.9    1469382.6   -858.33455 
  148000   0.10018311    7.6605147    1465634.3      1465642   -861.36137 
  148500   0.10018735    7.6596264    1465634.3      1465642   -861.51728 
  149000   0.10026758    7.6596265    1462842.4    1462850.1   -858.49585 
  149500   0.10072353    7.6594284    1460729.6    1460737.3   -859.36138 
  150000   0.10040772    7.6589294    1457230.9    1457238.6    -859.1275 
  150500   0.10018908    7.6592412    1457230.9    1457238.6   -856.99787 
  151000   0.10003901     7.658423    1455102.5    1455110.3   -861.46481 
  151500   0.10050415    7.6571039    1453911.6    1453919.3   -859.16599 
  152000   0.10036088    7.6566936    1451501.9    1451509.6   -857.82313 
  152500    0.1007162    7.6561107    1450832.9    1450840.6   -859.46786 
  153000   0.10009627    7.6565351    1449991.3      1449999   -859.64999 
  153500   0.10002019    7.6572979    1446980.2    1446987.9   -861.66881 
  154000   0.10042367    7.6551604    1446980.2    1446987.9   -859.52288 
  154500   0.10017367    7.6546446    1448023.9    1448031.7   -862.84923 
  155000    0.1008163    7.6540244    1447412.4    1447420.1   -861.06893 
  155500   0.10034798    7.6540835    1447674.6    1447682.4   -861.31807 
  156000   0.10030426     7.654213    1447362.4    1447370.1   -862.24764 
  156500   0.10027582     7.654434    1446943.7    1446951.4   -860.02378 
  157000   0.10031338    7.6540444    1447390.5    1447398.3    -860.9629 
  157500   0.10054436      7.65373    1448060.2    1448067.9   -860.75866 
  158000   0.10013761    7.6525994    1451379.8    1451387.5   -861.66825 
  158500  0.099852782    7.6540493    1451057.1    1451064.8   -858.84035 
  159000   0.10047593    7.6510023    1451057.1    1451064.8   -858.97807 
  159500   0.10006352    7.6510893    1454047.7    1454055.4   -858.01839 
  160000   0.10005963    7.6512235    1452593.7    1452601.4    -859.6484 
  160500   0.10037168    7.6510589    1452903.7    1452911.4   -860.41953 
  161000   0.10087363    7.6505764    1454119.3      1454127   -861.47398 
  161500   0.10034571    7.6505299    1455683.6    1455691.3   -860.86433 
  162000    0.1005756    7.6515416    1456613.6    1456621.3   -860.89009 
  162500    0.1003971    7.6490375    1456613.7    1456621.4   -862.06129 
  163000   0.10016559    7.6490727    1460467.5    1460475.2   -861.18546 
  163500   0.10014494    7.6480863      1464239    1464246.7   -858.65939 
  164000   0.10062608    7.6483277    1463594.2    1463601.9   -859.65645 
  164500   0.10034133    7.6475879    1465033.7    1465041.5   -859.89954 
  165000   0.10038368    7.6465549    1467247.6    1467255.4   -860.93527 
  165500   0.10026025    7.6450628    1468419.2    1468426.9    -861.3943 
  166000   0.10043667    7.6462196    1471250.7    1471258.4   -860.90619 
  166500   0.10060343    7.6446582    1473061.2    1473068.9   -860.92991 
  167000   0.10047234    7.6447891      1476189    1476196.7   -860.92946 
  167500   0.10059817    7.6418878    1477726.6    1477734.3   -859.07278 
  168000    0.1005657    7.6438343    1480340.6    1480348.3   -858.20883 
  168500   0.10048987     7.644152    1483395.7    1483403.5   -857.60473 
  169000   0.09983741    7.6427926    1485536.4    1485544.1   -862.00085 
  169500  0.099694981    7.6409985    1488441.8    1488449.5   -860.37285 
  170000    0.1001257    7.6394014    1491114.6    1491122.3   -861.84822 
  170500   0.10014892    7.6405041    1496090.7    1496098.4   -860.79851 
  171000   0.10025357    7.6399588    1499708.8    1499716.6   -861.83699 
  171500   0.10063089    7.6395302      1499709    1499716.7   -861.78164 
  172000   0.10048044    7.6399082      1503886    1503893.8    -860.8282 
  172500   0.10026273    7.6397324    1505870.9    1505878.6   -861.57413 
  173000   0.10046329    7.6395029    1510204.5    1510212.2   -859.97048 
  173500   0.10035984    7.6381168    1513562.8    1513570.5   -861.17591 
  174000   0.10048141    7.6386488    1517076.9    1517084.6      -857.84 
  174500   0.10051972    7.6372748    1518824.2    1518831.9   -860.56709 
  175000   0.10010384    7.6375652    1519831.2    1519838.9   -858.28278 
  175500  0.099903991     7.637395    1519831.4    1519839.1   -858.84392 
  176000   0.10040638    7.6364188    1521544.6    1521552.3   -861.21487 
  176500   0.10045555    7.6364238    1526751.5    1526759.2   -859.66799 
  177000  0.099910109    7.6361334    1527301.9    1527309.6   -860.07129 
  177500   0.10024971    7.6349628    1526565.8    1526573.5   -860.89564 
  178000   0.10052703    7.6347316    1527592.2    1527599.9   -858.18671 
  178500   0.10018063    7.6349867    1527220.8    1527228.5   -859.07276 
  179000   0.10030415    7.6352509    1527289.1    1527296.8   -858.82295 
  179500   0.10024281    7.6348346    1527297.3    1527305.1   -861.52043 
  180000  0.099930796    7.6329482    1528309.5    1528317.2   -861.38027 
  180500    0.1003187    7.6320992      1527859    1527866.7   -862.32484 
  181000   0.10049015    7.6305676    1527858.8    1527866.5   -859.55067 
  181500   0.10005099    7.6311092    1528008.2    1528015.9   -858.46403 
  182000  0.099959883    7.6299959    1526365.9    1526373.6   -861.16898 
  182500   0.10016629    7.6303752    1526365.9    1526373.6   -861.29381 
  183000  0.099922378    7.6314827    1523221.7    1523229.4   -860.83099 
  183500    0.1001509    7.6314718    1520249.6    1520257.3   -860.18214 
  184000   0.10059789    7.6305192      1518774    1518781.7   -860.13408 
  184500   0.10039482    7.6284049    1518184.5    1518192.2   -859.34729 
  185000   0.10029783    7.6267525      1514340    1514347.7   -858.31421 
  185500    0.1002476     7.626856      1510757    1510764.7   -859.96798 
  186000   0.10001426    7.6256026    1504323.2    1504330.9   -859.47083 
  186500   0.09995131    7.6266481    1499714.1    1499721.8   -861.01409 
  187000   0.10029165    7.6248041    1499714.2    1499721.9   -860.88443 
  187500   0.10050797    7.6242899    1495160.4      1495168   -860.52153 
  188000    0.1001923    7.6237022      1493643    1493650.7   -860.48132 
  188500   0.10001734    7.6231748    1491419.7    1491427.4   -858.02174 
  189000   0.10010425    7.6225756    1489363.1    1489370.8   -859.61623 
  189500   0.10047733    7.6240018    1485279.9    1485287.6   -860.52602 
  190000   0.10025773    7.6236726    1485279.8    1485287.5   -859.13277 
  190500  0.099927129    7.6230209      1485485    1485492.7   -859.74297 
  191000   0.10059864    7.6223674      1482144    1482151.7   -862.76339 
  191500   0.10044884    7.6236367    1478776.5    1478784.2   -861.12042 
  192000   0.10018408     7.623823      1479223    1479230.7   -859.46609 
  192500     0.100292    7.6239493    1477613.8    1477621.5   -858.34142 
  193000   0.10023625    7.6242404      1477115    1477122.7   -858.53198 
  193500   0.10085311    7.6242719    1473712.4    1473720.1   -860.20956 
  194000   0.10057862    7.6253911    1470750.6    1470758.3   -861.20479 
  194500   0.10042196    7.6243748    1469774.3      1469782   -859.07412 
  195000       0.1006    7.6246378    1469692.1    1469699.8   -858.91012 
  195500   0.10029153    7.6263541    1469780.9    1469788.6   -861.40681 
  196000   0.10063051    7.6255914    1466183.9    1466191.6   -860.86096 
  196500   0.10021085    7.6262507    1464995.5    1465003.2   -859.80141 
  197000   0.10016734    7.6253391    1464786.6    1464794.3   -860.47879 
  197500   0.10019899    7.6245563    1464471.4    1464479.1   -861.90843 
  198000   0.10030172    7.6244555    1462436.7    1462444.4   -859.72258 
  198500  0.099840322    7.6230855    1465985.3    1465992.9   -861.29096 
  199000   0.10035547    7.6230208    1465985.3      1465993   -860.76773 
  199500   0.10041885    7.6228024    1467161.7    1467169.4   -862.52387 
  200000    0.1003751    7.6241112    1466272.2    1466279.9   -859.53405 
  200500   0.10021455    7.6240706    1466398.9    1466406.6   -860.42222 
  201000   0.10061244    7.6237955    1466627.4    1466635.1   -856.86233 
  201500   0.10070046     7.623646    1465166.4    1465174.1   -857.74675 
  202000   0.10007534     7.623364    1467005.1    1467012.8    -860.8777 
  202500   0.10004529     7.622318    1467005.2    1467012.9   -862.16303 
  203000   0.10012071    7.6232921    1465650.8    1465658.5   -862.32692 
  203500   0.10027278    7.6219664    1468411.5    1468419.2   -857.76014 
  204000   0.10067524    7.6223189    1469169.7    1469177.4   -861.29989 
  204500   0.10049175    7.6220421    1468597.9    1468605.6   -860.89301 
  205000    0.1003523    7.6233251    1470984.9    1470992.6     -859.402 
  205500   0.10005471    7.6228675    1471982.9    1471990.6   -858.85231 
  206000   0.10084985    7.6231926    1472626.9    1472634.6   -859.06278 
  206500   0.10050086    7.6228013    1473220.5    1473228.2   -860.84146 
  207000   0.10050075    7.6247749    1473220.5    1473228.2   -861.78978 
  207500   0.10052577    7.6245364    1473524.9    1473532.6   -862.87845 
  208000  0.099821567     7.625271    1475891.6    1475899.3   -862.01866 
  208500   0.10028196    7.6256599    1475891.6    1475899.3   -860.65849 
  209000   0.10042277    7.6252001    1474852.5    1474860.2   -858.80067 
  209500    0.1000779    7.6273924    1472562.5    1472570.2   -858.80142 
  210000   0.10035095    7.6271466    1470096.5    1470104.2    -860.7433 
  210500   0.10033554    7.6264603    1467983.3      1467991   -860.95913 
  211000   0.10046836    7.6280341    1467393.5    1467401.2   -862.32849 
  211500   0.10007218    7.6279966    1463258.2    1463265.9   -861.74095 
  212000   0.10023341    7.6277261    1460432.1    1460439.8   -858.14323 
  212500     0.100184     7.625792    1458663.7    1458671.4   -861.70273 
  213000   0.10073737     7.626805    1458663.7    1458671.4   -860.26802 
  213500   0.10061665    7.6280894    1453899.6    1453907.3   -860.03646 
  214000   0.10037891    7.6278242    1451082.4    1451090.1   -857.31165 
  214500   0.10035071     7.629297      1448304    1448311.7   -859.55115 
  215000   0.10038309    7.6290475    1446615.9    1446623.6   -861.82507 
  215500   0.10028261     7.630222    1439556.1    1439563.8   -862.40399 
  216000   0.10061625    7.6306899    1433378.5    1433386.2   -857.65165 
  216500   0.10044948    7.6311696      1428138    1428145.8   -861.18667 
  217000   0.10048006    7.6311461    1425330.4    1425338.1   -859.12718 
  217500   0.10028463    7.6303882    1425330.3      1425338   -862.14578 
  218000   0.09989096    7.6307985    1422127.7    1422135.4   -861.33512 
  218500   0.10048492    7.6318822    1421435.1    1421442.8   -860.94552 
  219000    0.1000551    7.6304344    1419472.3      1419480   -862.14836 
  219500   0.10023369     7.631806      1418320    1418327.7   -857.27744 
  220000   0.10042313    7.6299799    1417862.6    1417870.3   -859.09834 
  220500   0.10050122    7.6303073    1417752.2    1417759.9   -862.53884 
  221000   0.09982935    7.6311121    1417178.6    1417186.3   -858.32499 
  221500   0.10045031    7.6314236    1416339.9    1416347.6   -861.38267 
  222000  0.099895376    7.6310481    1416339.9    1416347.6   -860.27754 
  222500   0.10023642    7.6318169    1417516.5    1417524.2   -860.77231 
  223000    0.1004545    7.6331897    1418098.8    1418106.5   -861.57826 
  223500   0.10022345    7.6327689    1419177.8    1419185.5    -859.6878 
  224000   0.10037594    7.6324201    1420514.5    1420522.2   -860.62527 
  224500   0.10071348    7.6334893      1420789    1420796.7   -860.63134 
  225000    0.1004465    7.6333964    1424433.1    1424440.9   -860.57357 
  225500   0.10037645    7.6335807    1428209.4    1428217.1   -860.40331 
  226000   0.10032587    7.6341827    1428209.3      1428217   -860.00773 
  226500   0.10015169    7.6334042    1432746.6    1432754.3    -860.1355 
  227000   0.10038574    7.6326891    1432746.6    1432754.3   -858.89162 
  227500     0.100274    7.6321671    1435713.8    1435721.5   -859.63226 
  228000   0.10033263    7.6315918    1439698.4    1439706.1   -860.38217 
  228500    0.1002401    7.6312741    1442768.7    1442776.4   -860.60393 
  229000   0.10001291     7.632231    1445264.1    1445271.8     -860.771 
  229500   0.10033369    7.6315016    1447241.3      1447249   -862.46546 
  230000   0.09984526    7.6320898    1447241.4    1447249.1   -857.91172 
  230500   0.10036043     7.633335    1448697.5    1448705.2   -861.30788 
  231000   0.10056014    7.6316064    1453985.9    1453993.6   -860.80119 
  231500     0.100264    7.6333247    1453314.7    1453322.4    -858.8535 
  232000   0.10022874    7.6341652    1454334.5    1454342.2   -859.98221 
  232500   0.10024178    7.6344448    1457049.3      1457057   -858.98854 
  233000   0.10019494    7.6345128    1458574.5    1458582.2   -860.84578 
  233500   0.10006302    7.6336415    1458605.6    1458613.3   -861.21214 
  234000   0.10020933     7.631547    1460939.7    1460947.4     -860.108 
  234500   0.10067467    7.6331496      1462125    1462132.7   -859.90993 
  235000   0.10007582    7.6336724    1463753.7    1463761.4   -857.31298 
  235500   0.10016318     7.632824    1466852.5    1466860.2   -862.29003 
  236000   0.10035039    7.6334996    1466852.7    1466860.4    -859.4598 
  236500   0.10018638    7.6350289      1469410    1469417.7   -858.73871 
  237000   0.10050268    7.6331952    1470004.8    1470012.5   -859.82596 
  237500   0.10024112    7.6326873    1471580.7    1471588.4   -858.60469 
  238000   0.10037558    7.6353362    1470626.4    1470634.1   -860.30193 
  238500  0.099975057    7.6338995    1467336.2    1467343.9   -859.24641 
  239000   0.10018871    7.6336355    1467336.1    1467343.8   -861.53484 
  239500   0.10064158    7.6334817    1467389.1    1467396.8   -859.03577 
  240000   0.10002777    7.6346379      1467189    1467196.7    -859.3091 
  240500   0.10033838    7.6372236    1465007.9    1465015.6   -858.94167 
  241000   0.10008687    7.6371071    1463313.4    1463321.1   -857.87159 
  241500   0.10046897    7.6365948    1459904.2    1459911.9   -862.74936 
  242000   0.10043188     7.637143    1458301.4    1458309.1   -860.36097 
  242500   0.10055489    7.6376504    1456545.4    1456553.1   -858.03905 
  243000   0.10040461    7.6385033    1456545.4    1456553.2   -860.57213 
  243500   0.10075153     7.638805    1455786.7    1455794.5   -860.26458 
  244000   0.10042502    7.6374056    1452967.5    1452975.2   -862.35698 
  244500  0.099844885    7.6402301    1453056.6    1453064.3   -858.66222 
  245000   0.10025222     7.638641    1453888.1    1453895.8   -858.59537 
  245500   0.10023784    7.6407165      1452616    1452623.7   -861.10797 
  246000   0.10045755    7.6404586    1451167.3      1451175   -860.33612 
  246500   0.10005334    7.6405296    1450916.6    1450924.3   -858.97865 
  247000   0.10056614    7.6413111    1451418.2    1451425.9   -861.30977 
  247500   0.10054639    7.6394742    1451383.1    1451390.8   -859.27749 
  248000  0.099991545    7.6391844    1450094.7    1450102.4   -861.13422 
  248500   0.10087799    7.6399325    1450241.4    1450249.1   -862.76086 
  249000   0.10008101    7.6401487    1448832.3      1448840   -859.13605 
  249500   0.10071089    7.6420399    1448095.2    1448102.9   -857.30778 
  250000   0.10046524    7.6395524    1449428.8    1449436.5    -860.8876 
  250500    0.1004574    7.6394115    1449428.8    1449436.5   -861.59602 
  251000  0.099989452    7.6405735    1450399.7    1450407.4   -860.00431 
  251500   0.10042718    7.6426965    1450872.4    1450880.1   -861.19839 
  252000    0.1004619    7.6429873      1452922    1452929.8   -859.15879 
  252500   0.10023826    7.6417292      1452922    1452929.7   -860.32105 
  253000   0.10017985    7.6399503    1453990.7    1453998.4   -861.97817 
  253500   0.10021187    7.6397964    1457914.4    1457922.1   -861.33827 
  254000   0.10037359      7.64047    1458240.2    1458247.9   -858.68189 
  254500   0.10013328    7.6420977    1461432.2    1461439.9   -858.96417 
  255000   0.10029568    7.6424829    1463507.4    1463515.2    -862.2383 
  255500   0.10055883     7.644488    1466165.4    1466173.1    -860.7679 
  256000   0.10075702    7.6447933    1469869.7    1469877.4   -860.52949 
  256500   0.10026132    7.6437144    1472399.9    1472407.7   -862.47808 
  257000   0.10024439    7.6462793    1473871.7    1473879.4   -859.91178 
  257500   0.10071975    7.6463111    1474554.6    1474562.3   -859.93482 
  258000   0.10089608    7.6487609    1474514.7    1474522.5    -859.8005 
  258500   0.10059726    7.6493005    1472110.1    1472117.8   -858.42176 
  259000   0.10014596    7.6503875    1472110.1    1472117.8   -859.92346 
  259500   0.10060951    7.6520238    1471685.4    1471693.1   -860.90792 
  260000   0.10037448    7.6522886    1470151.9    1470159.6   -859.48036 
  260500    0.1003749    7.6515108    1470151.9    1470159.7   -857.48888 
  261000    0.1002969     7.652706    1470628.4    1470636.1   -860.00748 
  261500   0.10026276    7.6533335      1470212    1470219.7   -860.22969 
  262000   0.10065734    7.6549999    1470368.5    1470376.3   -858.39292 
  262500   0.10032569    7.6548679    1469950.3      1469958   -861.49983 
  263000   0.10011543    7.6555871    1469029.3      1469037   -859.91572 
  263500   0.10051382    7.6576881    1469327.9    1469335.6   -858.12969 
  264000   0.10036529    7.6586267    1466307.1    1466314.9   -860.47244 
  264500   0.10046986    7.6593443    1465310.6    1465318.3   -860.53026 
  265000   0.10062357    7.6608305    1464498.8    1464506.5   -859.46243 
  265500   0.10063711    7.6614224    1462491.6    1462499.3   -859.44585 
  266000   0.10016642    7.6622775    1461548.9    1461556.7   -859.53432 
  266500   0.10032211    7.6620323    1461507.1    1461514.8   -859.80396 
  267000   0.10027946    7.6622482    1459364.2    1459371.9   -861.11589 
  267500   0.10058084    7.6638277    1459177.5    1459185.3   -862.27971 
  268000   0.10000177    7.6641155    1456753.8    1456761.5   -860.67873 
  268500   0.10002741    7.6643538    1455962.5    1455970.2   -859.04133 
  269000   0.10043811    7.6650398    1457066.6    1457074.4   -858.20786 
  269500   0.10070402    7.6668218    1454929.5    1454937.2   -859.60467 
  270000   0.10002196    7.6675483    1454947.7    1454955.4   -863.85293 
  270500   0.10024563    7.6685233    1453564.2    1453571.9   -856.77204 
  271000    0.1000691    7.6709662    1453439.5    1453447.3   -860.30185 
  271500   0.10067538    7.6701449    1451528.1    1451535.9   -861.50929 
  272000   0.10024706    7.6707638    1450761.3      1450769   -859.10347 
  272500   0.10034583    7.6735237    1448202.4    1448210.1   -860.36912 
  273000  0.099973019    7.6741369    1445239.9    1445247.6   -858.87539 
  273500    0.1008124    7.6756338    1442295.9    1442303.7   -860.62973 
  274000   0.10043298    7.6754054    1439337.1    1439344.8   -860.83515 
  274500   0.10008849    7.6765865    1438618.1    1438625.8   -858.82517 
  275000  0.099893572    7.6761201    1436310.3      1436318   -859.02129 
  275500   0.10040205    7.6763942    1437341.9    1437349.7   -858.80216 
  276000   0.10036849    7.6764732    1437341.9    1437349.7   -859.20919 
  276500   0.10019753    7.6755264      1435150    1435157.8   -857.15013 
  277000   0.09988702    7.6771468    1434560.3      1434568   -859.10627 
  277500   0.10044348    7.6777322    1432575.4    1432583.1   -860.29199 
  278000   0.10036982    7.6782167    1432002.9    1432010.6   -860.73284 
  278500   0.10076339    7.6785708    1432658.3    1432666.1   -859.70912 
  279000  0.099717011    7.6783085    1433787.9    1433795.6   -861.59958 
  279500   0.10000221    7.6770073      1432189    1432196.7   -860.34801 
  280000   0.10001702    7.6760066    1432166.4    1432174.2   -857.39361 
  280500   0.10032911    7.6772518    1433477.9    1433485.6   -859.33662 
  281000    0.1004275    7.6777114    1433032.6    1433040.3   -861.24257 
  281500    0.1003119    7.6781667    1433494.6    1433502.3   -857.15494 
  282000   0.10059479    7.6769348    1431104.5    1431112.2   -860.83995 
  282500   0.10019737    7.6775942    1429626.9    1429634.7   -859.80208 
  283000   0.10050789    7.6774351    1428713.1    1428720.9   -858.70966 
  283500   0.10053448    7.6765104    1429268.2      1429276   -860.47123 
  284000   0.10012591    7.6769534    1430723.4    1430731.1   -861.07654 
  284500   0.10010507    7.6774811    1431854.2      1431862   -858.90569 
  285000   0.10019081     7.677644    1431817.5    1431825.3   -860.04807 
  285500   0.10034082    7.6770024    1432558.8    1432566.6   -861.22394 
  286000   0.10003229    7.6777382    1433229.6    1433237.4   -860.92052 
  286500   0.10010471    7.6767148    1432732.5    1432740.3    -858.5995 
  287000   0.10037992    7.6759888    1434372.8    1434380.6   -858.32507 
  287500  0.099972698    7.6782701    1434784.9    1434792.6   -859.05465 
  288000    0.1000047     7.678177    1434903.6    1434911.4   -861.37349 
  288500   0.10002016    7.6757893    1435994.2      1436002   -860.16978 
  289000  0.099885407    7.6755957    1439015.8    1439023.5   -860.06058 
  289500  0.099840997    7.6755119    1438823.7    1438831.4    -858.8204 
  290000   0.10069256    7.6763673      1440161    1440168.8   -857.04505 
  290500   0.10052556    7.6760395    1438874.9    1438882.7    -859.3672 
  291000   0.10002178    7.6751746    1440093.7    1440101.4   -859.87373 
  291500   0.10023387    7.6773532    1442651.9    1442659.7   -859.65669 
  292000   0.10067504    7.6757863    1443793.5    1443801.2   -860.63834 
  292500   0.10043606    7.6745363    1443793.5    1443801.3   -859.13796 
  293000   0.10035783    7.6746948    1447582.9    1447590.7   -858.86569 
  293500  0.099883728    7.6751476    1451586.5    1451594.2   -861.79513 
  294000   0.10044975    7.6743107    1455727.1    1455734.9    -861.1404 
  294500   0.10007146    7.6735178    1459890.8    1459898.5   -859.81512 
  295000   0.10046989    7.6715374    1463804.1    1463811.8   -860.59049 
  295500  0.099835805     7.671105    1464212.9    1464220.6   -864.26773 
  296000   0.10049382    7.6704165    1469096.5    1469104.2   -863.78426 
  296500   0.10007262     7.670623    1470811.9    1470819.7   -857.19916 
  297000   0.10030502    7.6704401      1470812    1470819.7   -861.67315 
  297500   0.10006943     7.670391    1471916.3      1471924   -859.60296 
  298000   0.10040133    7.6692906    1473513.5    1473521.2   -860.06329 
  298500   0.10014136    7.6687136    1474979.2      1474987   -860.95763 
  299000   0.10005407    7.6693099    1474979.3      1474987   -859.27502 
  299500    0.1004201    7.6682551    1474410.1    1474417.8   -860.52673 
  300000   0.10024629    7.6681648    1478117.5    1478125.2   -861.98038 
  300500   0.10044982    7.6666256    1478630.1    1478637.8   -860.09701 
  301000   0.10028428     7.665755    1477955.2    1477962.9   -856.68181 
  301500   0.10049232    7.6651728    1480381.4    1480389.1   -861.31518 
  302000  0.099510609    7.6657249    1480381.5    1480389.2   -863.07294 
  302500   0.10047792    7.6654026    1481372.3      1481380   -858.73802 
  303000   0.10076827    7.6635151    1484333.8    1484341.6   -859.06264 
  303500   0.10066124     7.662418    1486988.9    1486996.6   -860.60358 
  304000   0.10027904    7.6630022    1489088.1    1489095.9   -860.78302 
  304500   0.10072889    7.6606113    1490480.9    1490488.6   -860.03337 
  305000   0.10067713    7.6610434    1494583.3      1494591   -860.69878 
  305500   0.10045713    7.6595271    1494583.1    1494590.9    -858.8867 
  306000   0.10034819    7.6583944    1496837.8    1496845.6    -861.5956 
  306500   0.10043842    7.6577632      1497307    1497314.8   -861.54029 
  307000   0.10033503    7.6570632    1500025.5    1500033.2   -858.84355 
  307500   0.10018461    7.6566565    1500025.4    1500033.2   -858.61949 
  308000   0.10009876    7.6559053    1499242.5    1499250.3   -858.99847 
  308500   0.10066169    7.6554097    1502308.2    1502315.9   -859.56083 
  309000  0.099994438    7.6533803    1500489.9    1500497.7   -861.63852 
  309500   0.10057784     7.652397    1499358.7    1499366.4   -859.00633 
  310000   0.10014901    7.6510098    1499484.6    1499492.3   -859.35407 
  310500   0.10043981    7.6509813    1499484.5    1499492.2   -861.31393 
  311000   0.10026581    7.6509329    1503212.7    1503220.4    -862.0348 
  311500    0.1002623     7.650536    1503790.6    1503798.3   -857.86659 
  312000   0.10017092    7.6500644    1505808.2    1505815.9   -860.18089 
  312500   0.10041778    7.6480867    1506744.9    1506752.6   -859.17514 
  313000   0.10040337      7.64724    1506744.9    1506752.6   -858.89501 
  313500  0.099904082    7.6467235    1504390.1    1504397.8   -859.93919 
  314000   0.10038951    7.6475104      1505758    1505765.7   -862.34119 
  314500   0.10049184    7.6461458    1505556.8    1505564.5   -860.89581 
  315000   0.10049237    7.6450839    1505705.8    1505713.5   -861.37757 
  315500   0.10096249     7.644929    1506211.7    1506219.4   -862.86266 
  316000   0.10020218    7.6429673    1505372.5    1505380.3   -860.98985 
  316500   0.10010551    7.6425486    1505964.2    1505971.9   -859.63122 
  317000  0.099963335    7.6409323    1505608.4    1505616.1   -861.47305 
  317500   0.10011586    7.6397446    1504858.9    1504866.6   -863.35041 
  318000   0.10029275    7.6398487    1500560.5    1500568.2     -859.382 
  318500   0.10059397    7.6399168    1500560.4    1500568.1   -862.23676 
  319000   0.10061931    7.6389873    1497720.6    1497728.3   -859.98075 
  319500   0.10027569    7.6392507    1496718.9    1496726.7   -862.03599 
  320000   0.10051766    7.6382378    1493844.2    1493851.9   -858.12185 
  320500   0.10017373     7.637665    1493721.1    1493728.8   -861.83598 
  321000   0.10026737    7.6377272      1493721    1493728.7   -860.89745 
  321500   0.10017905    7.6364392    1487425.9    1487433.6   -859.78263 
  322000   0.10026921    7.6379822      1486542    1486549.7   -859.12327 
  322500   0.10040746    7.6376714    1480700.7    1480708.4   -859.85065 
  323000   0.10022455    7.6366004    1476716.3      1476724   -859.67959 
  323500   0.10017313     7.636479    1474694.6    1474702.3   -861.68068 
  324000   0.10010633    7.6370467    1471419.1    1471426.8   -861.34972 
  324500   0.10050049    7.6365581    1471419.2    1471426.9    -859.7469 
  325000    0.1004339     7.636413    1463524.2    1463531.9   -860.11574 
  325500   0.10079426    7.6365331    1463524.1    1463531.8   -859.64212 
  326000   0.10080362    7.6361669      1461433    1461440.8    -857.3657 
  326500   0.10070413     7.634828    1460955.1    1460962.8   -862.34444 
  327000   0.10019988    7.6344512    1459797.9    1459805.6   -860.77758 
  327500   0.10045818    7.6340262    1458066.6    1458074.3   -858.81998 
  328000   0.10014401    7.6350075    1458066.6    1458074.3   -859.79847 
  328500   0.10052599    7.6349059    1457427.9    1457435.6   -859.10684 
  329000    0.1000909    7.6350536    1454717.5    1454725.2    -859.7769 
  329500   0.10018762    7.6361007    1453476.4    1453484.1   -862.03957 
  330000   0.10065362    7.6370708    1450584.8    1450592.5   -860.12973 
  330500   0.10049056    7.6386196    1448830.9    1448838.6   -859.61121 
  331000   0.10034272    7.6368734    1448037.8    1448045.5   -858.55137 
  331500   0.10037936    7.6361931    1445523.7    1445531.4   -858.64203 
  332000   0.10037433    7.6365701      1444028    1444035.7   -860.31493 
  332500   0.10007603    7.6365619    1439733.4    1439741.1   -860.16809 
  333000   0.10060403     7.638025    1439015.4    1439023.1   -859.77087 
  333500    0.1003002    7.6361333    1439081.7    1439089.4   -859.24958 
  334000   0.10035982    7.6371183    1439043.3      1439051   -860.58226 
  334500   0.10007967    7.6371703    1438712.5    1438720.2    -859.4542 
  335000   0.10071486    7.6369629    1437909.9    1437917.6   -860.62543 
  335500  0.099841714    7.6358276    1437909.8    1437917.5      -860.06 
  336000   0.10038726    7.6356572    1437248.6    1437256.4   -859.13893 
  336500   0.10065903    7.6381557    1438878.4    1438886.1   -859.28694 
  337000   0.10028793     7.637021    1440927.9    1440935.6   -860.12679 
  337500   0.10004529    7.6390046    1440927.9    1440935.7   -861.04585 
  338000   0.10031206    7.6371801    1441069.8    1441077.5   -859.87211 
  338500   0.10046159    7.6369759    1441741.4    1441749.1   -861.45949 
  339000   0.10040116    7.6374749    1445221.4    1445229.1   -861.05166 
  339500   0.10035059    7.6383004      1446952    1446959.7   -859.56583 
  340000   0.10028586    7.6387682    1450913.1    1450920.8   -859.41472 
  340500  0.099980515    7.6382827    1451537.4    1451545.1   -860.93748 
  341000   0.10038204    7.6395644    1454829.5    1454837.2     -859.967 
  341500   0.10008139    7.6392712    1459214.7    1459222.5   -858.59113 
  342000   0.10021052    7.6408615    1462415.9    1462423.6    -860.1237 
  342500  0.099903719    7.6406892    1466225.4    1466233.1   -857.74662 
  343000   0.10016341    7.6411251    1466225.4    1466233.1   -860.41717 
  343500   0.10062814    7.6409188    1474790.5    1474798.2   -858.78147 
  344000   0.10037738    7.6393036    1474882.1    1474889.8   -863.42491 
  344500   0.10007832    7.6393939    1477698.9    1477706.6   -860.57563 
  345000  0.099752413    7.6389333      1477699    1477706.7   -861.45612 
  345500   0.10072226    7.6386283    1479486.4    1479494.1   -858.96974 
  346000      0.10066    7.6391624    1484060.7    1484068.4    -857.8617 
  346500   0.10057352    7.6386765    1488219.6    1488227.3   -859.45597 
  347000   0.10044366    7.6391316    1489409.1    1489416.8   -858.24973 
  347500    0.1001629    7.6401581    1492276.9    1492284.6   -859.22872 
  348000   0.10030728    7.6400361      1495550    1495557.7   -860.37429 
  348500   0.10041345    7.6390424    1495549.9    1495557.6   -859.78291 
  349000   0.10017816    7.6398979    1498416.2    1498423.9   -859.16085 
  349500   0.10039061    7.6380513    1499925.4    1499933.1   -860.76802 
  350000   0.10040688    7.6394844    1502155.9    1502163.6   -861.10003 
  350500   0.10024763    7.6390413    1502579.2    1502586.9    -861.7879 
  351000   0.10037291    7.6386228    1503932.6    1503940.3   -861.47745 
  351500   0.10034431    7.6401656    1503932.7    1503940.4   -861.78527 
  352000   0.10016482    7.6413415    1504714.1    1504721.8   -863.83051 
  352500   0.10063177    7.6398414      1505449    1505456.7   -860.38516 
  353000   0.10017635     7.639295    1505285.7    1505293.4   -859.93279 
  353500   0.10030953    7.6401142    1506094.6    1506102.3   -861.23729 
  354000   0.10022598    7.6410232    1505453.4    1505461.1   -858.69477 
  354500   0.10038256    7.6417973    1505453.3      1505461   -861.65464 
  355000  0.099997904    7.6419507    1505386.9    1505394.6   -861.59616 
  355500   0.10031868    7.6434569      1503735    1503742.7   -859.84332 
  356000    0.1002368    7.6442146    1503735.1    1503742.8   -859.77831 
  356500   0.10076794    7.6456635    1502676.4    1502684.1   -860.24422 
  357000   0.10027957     7.644893    1501780.8    1501788.5   -860.25714 
  357500   0.10038734    7.6479685    1502989.4    1502997.1   -859.71608 
  358000   0.10022723    7.6472476    1501268.5    1501276.2    -859.6712 
  358500   0.10014373    7.6476721    1499814.5    1499822.2   -861.54407 
  359000   0.10030801    7.6498494    1499814.4    1499822.1   -859.32946 
  359500   0.10001828    7.6509617    1497238.5    1497246.2   -860.14414 
  360000    0.1001312      7.65292      1497204    1497211.7   -864.15383 
  360500   0.10013706    7.6531532    1497204.1    1497211.8   -861.44376 
  361000   0.10020586    7.6524267    1497533.8    1497541.5   -860.26562 
  361500  0.099816703    7.6549479    1497533.9    1497541.6   -859.39917 
  362000   0.10019648    7.6545164    1496020.7    1496028.4   -861.07977 
  362500   0.10056961    7.6545165    1493467.6    1493475.3   -861.67666 
  363000    0.1003881    7.6548239    1492466.4    1492474.1   -860.38583 
  363500   0.10021351    7.6549506    1492466.6    1492474.4   -860.56402 
  364000  0.099807964    7.6546304    1489816.7    1489824.4    -860.6134 
  364500  0.099858827     7.654588    1488069.8    1488077.5    -859.3912 
  365000   0.10023948     7.654046    1487570.4    1487578.2   -860.06964 
  365500   0.10032154    7.6546743    1485646.7    1485654.5   -860.08546 
  366000   0.10034983       7.6548    1484950.3      1484958   -858.80095 
  366500  0.099901191    7.6547811    1484950.4    1484958.1   -857.86124 
  367000   0.10023058       7.6548    1487456.5    1487464.2   -859.58174 
  367500  0.099979919    7.6550413    1485116.8    1485124.5   -860.53088 
  368000   0.10034056    7.6557871      1487295    1487302.7    -862.6865 
  368500    0.1003075    7.6552339    1488872.5    1488880.3   -859.35534 
  369000   0.10031079    7.6550491    1489785.2      1489793   -859.14301 
  369500   0.10035149    7.6540064    1489785.3      1489793    -859.2621 
  370000   0.10046233     7.654351    1491760.9    1491768.6   -862.10185 
  370500   0.10021582    7.6528384    1494895.2    1494902.9   -859.30533 
  371000   0.10025383    7.6532824    1494895.2    1494902.9   -859.76295 
  371500   0.10011412    7.6538241      1496465    1496472.8   -858.99625 
  372000    0.1004113    7.6516409    1500852.5    1500860.2   -860.56333 
  372500   0.10049474    7.6506344    1502813.2    1502820.9    -861.7494 
  373000     0.100269    7.6501793    1506820.7    1506828.5   -858.62676 
  373500    0.1001698    7.6499561    1511120.6    1511128.3   -860.89235 
  374000   0.10063789    7.6507411    1511120.6    1511128.3   -858.58683 
  374500   0.10014511    7.6477079    1517045.5    1517053.3   -861.90467 
  375000   0.10019188    7.6495372    1518687.6    1518695.3   -857.82034 
  375500  0.099667501    7.6496398      1520937    1520944.7   -858.11443 
  376000   0.10055308    7.6500048    1521122.1    1521129.8   -860.39654 
  376500   0.10047213    7.6483211    1524163.2    1524170.9   -860.42381 
  377000   0.10054905    7.6472655    1525517.8    1525525.5   -858.89431 
  377500  0.099796796    7.6472393    1528362.1    1528369.9   -860.55171 
  378000   0.10000379    7.6456132    1531799.5    1531807.2   -859.61444 
  378500   0.10051857    7.6465676    1531653.7    1531661.4   -862.47404 
  379000    0.1000008    7.6466498    1531057.7    1531065.4   -859.47586 
  379500   0.10069657    7.6465613    1533621.8    1533629.5   -858.96211 
  380000   0.10039675    7.6461738      1533622    1533629.7   -859.59801 
  380500   0.10053323    7.6440177    1534728.6    1534736.4   -860.51607 
  381000   0.10055953    7.6434991    1536221.6    1536229.3   -861.09613 
  381500   0.10008668    7.6442377    1537139.7    1537147.5    -861.5553 
  382000   0.10067149    7.6422027      1539357    1539364.7   -861.24394 
  382500   0.10043558    7.6419446    1542524.8    1542532.5   -858.94773 
  383000   0.10037618    7.6402436    1541523.3      1541531   -861.92093 
  383500   0.10048336    7.6408694    1541523.3      1541531   -862.13382 
  384000   0.10062513    7.6398436    1540561.3      1540569   -861.51809 
  384500  0.099751721    7.6408689    1540561.2    1540568.9   -862.26105 
  385000   0.10007391    7.6394683    1542096.8    1542104.5   -860.06369 
  385500   0.10059436    7.6399185    1541508.5    1541516.2   -860.31434 
  386000   0.10059962    7.6394725    1540646.5    1540654.2    -860.4076 
  386500   0.10006462    7.6399379    1540646.6    1540654.3   -859.38324 
  387000   0.10045359    7.6395827    1540357.4    1540365.1   -861.51246 
  387500   0.10013285    7.6395553    1538734.1    1538741.8   -861.06686 
  388000   0.10009314    7.6407462    1537932.6    1537940.3   -859.10261 
  388500   0.10081727    7.6394103    1537129.4    1537137.1   -860.38116 
  389000   0.10024193     7.640899    1533835.5    1533843.2   -859.92893 
  389500   0.10031195    7.6405936    1532774.7    1532782.4   -860.15804 
  390000  0.099853539    7.6410644    1532774.7    1532782.4   -857.53678 
  390500  0.099918329    7.6401416    1529952.9    1529960.6   -858.81405 
  391000   0.10010765     7.638507    1526602.5    1526610.2   -860.77608 
  391500   0.10058153    7.6403606    1526031.4    1526039.1   -859.88937 
  392000  0.099969476    7.6382897    1527689.9    1527697.6   -860.45676 
  392500   0.10032562     7.638186    1527982.4    1527990.1   -858.50604 
  393000   0.10051324     7.638456    1525819.4    1525827.1   -859.31038 
  393500   0.10025636    7.6369442    1527713.7    1527721.4   -860.73261 
  394000   0.10049657    7.6370281    1528957.3      1528965   -860.87811 
  394500   0.10046542    7.6376289      1529218    1529225.7   -860.64949 
  395000   0.10030216    7.6372526      1529218    1529225.7   -858.92579 
  395500   0.10010867    7.6370302    1527316.7    1527324.5   -859.35502 
  396000   0.10009266    7.6374936    1528684.9    1528692.7   -856.81747 
  396500  0.099970189    7.6356001    1531389.2    1531396.9   -858.87011 
  397000   0.10002946    7.6355502      1532619    1532626.7   -863.59963 
  397500   0.10046497    7.6356671    1533987.8    1533995.5   -859.24516 
  398000    0.1001932    7.6340772    1532873.4    1532881.1   -859.22245 
  398500   0.10031628    7.6325108      1532166    1532173.7   -859.77418 
  399000   0.10040393    7.6323791    1534108.5    1534116.2   -860.90942 
  399500   0.10047564    7.6319126    1534756.8    1534764.5   -860.76767 
  400000   0.10047439    7.6309037      1532131    1532138.7   -858.22768 
  400500     0.100071    7.6298651    1530819.1    1530826.8   -859.31876 
  401000   0.10027829    7.6299985    1529202.5    1529210.2   -860.18994 
  401500   0.10045072    7.6288147    1526495.4    1526503.1   -861.53824 
  402000   0.10006522    7.6302618    1526495.4    1526503.1   -862.20703 
  402500   0.10010266    7.6292305    1521357.5    1521365.2    -860.3842 
  403000   0.10087338    7.6277932    1520135.4    1520143.1   -858.19059 
  403500   0.10032183    7.6264954    1517626.9    1517634.6   -861.62907 
  404000   0.10044084    7.6260023    1514485.5    1514493.2   -860.54802 
  404500   0.10086525     7.624906    1514485.5    1514493.2   -862.19346 
  405000   0.10073322    7.6254897    1513600.6    1513608.3   -862.11674 
  405500   0.10028664     7.625061    1509810.2    1509817.9    -860.6037 
  406000   0.10057716    7.6254745    1506178.2    1506185.9   -858.74866 
  406500   0.10064388    7.6256903    1506178.2    1506185.9   -860.12038 
  407000   0.10003629    7.6253295    1502934.5    1502942.2   -861.87707 
  407500   0.10044353    7.6235292    1498997.4    1499005.1    -860.7008 
  408000   0.10014795    7.6250523    1496151.2    1496158.9   -860.61397 
  408500    0.1004685    7.6245505    1496151.2    1496158.8   -860.74854 
  409000   0.10026686    7.6245499    1493334.4    1493342.1   -862.19422 
  409500   0.10022843    7.6259883      1489971    1489978.7   -861.71647 
  410000   0.10050323    7.6253472    1485081.7    1485089.4   -862.01243 
  410500    0.1003691    7.6254209    1483591.8    1483599.5   -860.35903 
  411000   0.10045768    7.6257268    1479685.8    1479693.5   -860.84817 
  411500   0.10058015     7.625597    1476567.9    1476575.6    -859.0645 
  412000  0.099955392    7.6263715    1473157.7    1473165.4   -859.91288 
  412500   0.10047895    7.6253868    1473157.8    1473165.5   -859.88699 
  413000   0.10025881    7.6260713    1471009.8    1471017.5   -861.44274 
  413500   0.10044995     7.627358    1470851.6    1470859.3   -861.73411 
  414000   0.10050462    7.6279835    1470447.3      1470455    -858.7661 
  414500    0.1003361    7.6264685    1470505.2    1470512.9   -860.52559 
  415000   0.10015981    7.6239279    1468750.1    1468757.8   -860.94001 
  415500   0.10049367    7.6233519      1467910    1467917.7   -860.44157 
  416000   0.10087821    7.6234242    1466210.7    1466218.4   -859.32334 
  416500   0.10042286    7.6216825    1463252.8    1463260.5   -861.43782 
  417000   0.10035652    7.6222039    1463811.6    1463819.3    -859.6323 
  417500   0.10052048     7.622265    1461592.5    1461600.2   -859.08941 
  418000   0.10051849    7.6227913    1462651.3      1462659   -860.28342 
  418500   0.10057001    7.6240947    1463851.4    1463859.1   -857.53592 
  419000   0.10064847    7.6227532    1463851.5    1463859.2   -860.55716 
  419500   0.10056135    7.6230177    1464905.8    1464913.5   -860.07757 
  420000   0.10035021    7.6233533    1462413.7    1462421.4   -860.20291 
  420500   0.10033528    7.6237305    1461149.2    1461156.9   -859.99356 
  421000     0.100818    7.6225406    1460025.8    1460033.5   -860.15281 
  421500   0.10049829     7.621702      1458974    1458981.7   -861.87871 
  422000   0.10032539    7.6221596    1457115.2    1457122.9   -860.52401 
  422500   0.10067952     7.623261      1457047    1457054.7   -858.22275 
  423000   0.10090308     7.622744    1456679.4    1456687.1   -859.37178 
  423500   0.10061346    7.6227025    1457143.2    1457150.9   -858.07508 
  424000   0.10029281    7.6248337    1457429.2    1457436.9   -859.30856 
  424500   0.10062961    7.6241608    1457429.2    1457436.9   -858.18726 
  425000   0.10038095     7.626006    1456892.5    1456900.2   -862.26345 
  425500    0.1002494    7.6280764    1456535.5    1456543.2   -861.10578 
  426000  0.099873706    7.6290579    1458252.6    1458260.3   -860.04415 
  426500   0.10042993    7.6303094    1458252.7    1458260.4   -862.28244 
  427000   0.10022481    7.6310506      1458320    1458327.7   -860.08398 
  427500   0.10004041    7.6314825    1458822.6    1458830.3   -860.80301 
  428000   0.10037914    7.6314273    1458822.5    1458830.3   -858.88475 
  428500   0.10021836    7.6328208    1458658.1    1458665.8    -862.2784 
  429000   0.10041176    7.6333147      1459152    1459159.7   -861.92809 
  429500   0.10042983    7.6353021    1456805.5    1456813.2     -859.104 
  430000    0.1002817    7.6355654    1456805.7    1456813.4   -860.13366 
  430500   0.10044088    7.6376812      1456406    1456413.7   -860.06736 
  431000    0.1006043    7.6384854    1458885.4    1458893.1   -860.42848 
  431500   0.10030609    7.6375813    1458917.2    1458924.9   -861.19805 
  432000   0.10027139    7.6377468    1458941.7    1458949.4   -860.25304 
  432500   0.10072029    7.6399493    1456498.1    1456505.8   -859.33471 
  433000   0.10067973    7.6412221    1454646.9    1454654.6   -859.23223 
  433500   0.10029986    7.6396301      1454647    1454654.7   -860.84698 
  434000   0.10009154    7.6414436      1452549    1452556.7    -859.7038 
  434500   0.10082576    7.6431757    1451168.4    1451176.1   -857.91446 
  435000   0.10073111    7.6426088    1449463.2    1449470.9   -861.67047 
  435500   0.10062473    7.6445127    1448192.4    1448200.1   -861.62891 
  436000   0.10029324    7.6432393    1448411.9    1448419.6   -860.09586 
  436500   0.10061552    7.6449234    1448581.6    1448589.3   -860.79921 
  437000   0.10034361    7.6442024    1449088.6    1449096.3   -863.06433 
  437500   0.10042885    7.6448275    1447667.5    1447675.3   -858.43683 
  438000   0.10085566    7.6445783    1446838.8    1446846.5   -860.76511 
  438500   0.10029484    7.6459196    1447662.2    1447669.9   -860.73709 
  439000   0.10027728    7.6447052    1447662.3      1447670   -859.11682 
  439500   0.10032097     7.645239    1448308.8    1448316.5   -863.82173 
  440000   0.10033333     7.644897    1448038.4    1448046.2   -860.59177 
  440500   0.10052309     7.645206    1449036.1    1449043.8   -862.25886 
  441000   0.10015754    7.6458741    1447582.3      1447590   -858.64432 
  441500   0.10071764    7.6446828    1448667.6    1448675.3   -859.20041 
  442000   0.10043293    7.6441805    1450817.2    1450824.9   -859.31943 
  442500   0.10060242    7.6465179    1451996.3    1452004.1   -858.11484 
  443000   0.10008238    7.6460386    1452401.7    1452409.4   -857.31299 
  443500   0.10004499    7.6467517    1449982.6    1449990.3   -860.82661 
  444000    0.1005957    7.6462176    1449982.6    1449990.3   -861.34094 
  444500   0.10049608    7.6449332    1449219.4    1449227.1   -861.57466 
  445000   0.10012614    7.6467315    1449219.5    1449227.2   -859.17556 
  445500   0.10064438    7.6463915    1449877.1    1449884.8   -861.86427 
  446000   0.10048455    7.6494125    1448642.2    1448649.9   -858.36834 
  446500   0.10016627    7.6481898    1448230.3    1448238.1   -859.26651 
  447000    0.1004315    7.6474259    1449376.8    1449384.5   -859.98211 
  447500   0.10072919    7.6470489    1449526.1    1449533.8   -859.41274 
  448000   0.10070912    7.6469682    1448715.6    1448723.4   -858.33754 
  448500   0.10077173    7.6465485    1448958.7    1448966.4   -858.52578 
  449000   0.10059429    7.6481969    1447677.8    1447685.5   -859.19614 
  449500   0.10023687     7.647481    1445967.5    1445975.2   -860.47142 
  450000   0.10041832    7.6483803    1444711.8    1444719.6   -858.83757 
  450500   0.10088211    7.6480998    1444711.7    1444719.4   -859.16637 
  451000   0.10042632    7.6493957    1444794.8    1444802.5   -857.83793 
  451500   0.10072751    7.6490443    1441828.6    1441836.3    -859.8064 
  452000   0.10048549    7.6501848    1439650.5    1439658.3   -858.00259 
  452500   0.10048941    7.6524447    1439923.5    1439931.2     -859.046 
  453000    0.1006562    7.6532516      1439409    1439416.7   -858.94697 
  453500   0.10036894    7.6539244      1437570    1437577.7    -857.9283 
  454000   0.10005194    7.6569937    1438449.6    1438457.3   -859.22195 
  454500   0.10074718    7.6577006    1437626.5    1437634.2    -859.3495 
  455000   0.10000074     7.657461    1438619.3    1438627.1   -860.09948 
  455500   0.10056659    7.6573216    1438562.3      1438570   -858.41489 
  456000   0.10029794     7.657484    1438562.3    1438570.1   -860.30947 
  456500   0.10043208    7.6583179    1440481.1    1440488.8   -862.13899 
  457000   0.10005596    7.6584643    1438889.5    1438897.2   -858.98355 
  457500   0.10074087    7.6579967    1438889.4    1438897.2    -860.0985 
  458000    0.1004664    7.6599611    1438423.4    1438431.1   -862.35005 
  458500   0.10069803    7.6596847    1437369.8    1437377.6    -860.4624 
  459000    0.1006576    7.6586611    1435629.9    1435637.6   -861.29444 
  459500   0.10031355    7.6601787    1435629.9    1435637.6   -859.40998 
  460000   0.10036204    7.6602787    1433156.2      1433164   -860.30166 
  460500   0.10034044    7.6613003    1433156.2      1433164   -861.33553 
  461000   0.10041999    7.6627465      1430863    1430870.7   -859.49781 
  461500   0.10072841    7.6633515    1425058.4    1425066.2   -862.07921 
  462000   0.10063576    7.6644939    1424444.5    1424452.2   -859.01422 
  462500   0.10071769    7.6647885    1422861.4    1422869.1   -859.67559 
  463000   0.10040703    7.6662087    1423148.1    1423155.8   -861.12234 
  463500   0.10047961     7.665569    1421769.9    1421777.6   -864.01872 
  464000   0.10083842    7.6657611    1418235.6    1418243.3   -859.69812 
  464500   0.10025652    7.6664799    1417120.1    1417127.8   -862.21163 
  465000   0.10074118    7.6690549    1413682.2    1413689.9   -859.73991 
  465500    0.1000154    7.6680781    1413682.1    1413689.9   -857.39767 
  466000   0.10042775    7.6693965      1412347    1412354.7   -858.98722 
  466500   0.10048283    7.6677659    1412488.3      1412496   -860.31386 
  467000   0.10053119    7.6691718    1411924.5    1411932.3   -861.12243 
  467500   0.10052605    7.6692819    1410704.9    1410712.7   -858.63014 
  468000   0.10058588    7.6699968      1409857    1409864.7   -858.64441 
  468500   0.10040939    7.6695377    1409037.9    1409045.7   -858.38534 
  469000   0.10009958    7.6697507    1409340.7    1409348.5    -859.4081 
  469500  0.099842632    7.6688307    1408547.2    1408554.9    -859.9978 
  470000   0.10039926    7.6687476    1408547.3      1408555   -858.65072 
  470500   0.10049279    7.6693736    1408091.9    1408099.6    -860.3675 
  471000   0.10076994    7.6677414    1408501.5    1408509.3   -861.84841 
  471500   0.10064716    7.6690304    1410307.4    1410315.2   -860.20485 
  472000   0.10053869      7.66924    1411696.4    1411704.2     -861.159 
  472500  0.099884228    7.6682131      1412913    1412920.7   -860.53765 
  473000   0.10039256    7.6694285    1412449.2    1412456.9   -861.92917 
  473500   0.10067675    7.6697911    1412449.2    1412456.9   -859.28825 
  474000    0.1004777    7.6701718    1415289.2    1415296.9   -859.29237 
  474500   0.10036912    7.6689015    1416641.4    1416649.1   -860.94857 
  475000   0.10046497    7.6709732    1417331.5    1417339.3    -858.8577 
  475500   0.10013128    7.6708952      1417886    1417893.7   -856.94387 
  476000   0.10022681    7.6709827    1420187.4    1420195.1   -859.89665 
  476500   0.10008372    7.6703645    1420130.4    1420138.2   -860.13687 
  477000    0.1003016    7.6716856    1420162.8    1420170.6   -860.86928 
  477500   0.10059128    7.6727288    1421925.9    1421933.6   -860.83106 
  478000   0.10055744    7.6722031    1422877.4    1422885.1   -860.03708 
  478500   0.10027855     7.673391    1424807.4    1424815.2   -861.09866 
  479000   0.10048014    7.6733198    1424854.5    1424862.3   -861.48824 
  479500   0.10025693    7.6735768    1425008.8    1425016.5   -861.42824 
  480000   0.10039195    7.6746805    1423974.3    1423982.1   -858.44152 
  480500   0.10048193    7.6754368    1423658.2      1423666   -860.98678 
  481000   0.10043287    7.6764015      1423720    1423727.8   -860.98391 
  481500   0.10040612    7.6769596    1423836.9    1423844.7   -858.08365 
  482000   0.10033309    7.6793743      1423139    1423146.7    -860.1867 
  482500   0.10046458     7.678271    1423572.4    1423580.1   -860.96244 
  483000   0.10046904    7.6804016    1423345.7    1423353.4   -860.61662 
  483500   0.10044682    7.6817956    1423418.3    1423426.1   -860.23894 
  484000   0.10020524    7.6815385    1423385.6    1423393.4   -861.62884 
  484500   0.10078761    7.6809478    1423685.6    1423693.4   -861.72051 
  485000    0.1003237    7.6825716    1426159.2    1426166.9   -859.69912 
  485500  0.099979311    7.6824429    1429213.6    1429221.4   -861.80448 
  486000    0.1003908    7.6806175    1429772.9    1429780.6   -859.65016 
  486500   0.10047806    7.6802445    1431635.7    1431643.5   -858.34621 
  487000   0.10028679    7.6813221    1431635.9    1431643.6    -860.4534 
  487500   0.10001664    7.6814262    1434452.7    1434460.5    -862.4597 
  488000   0.09996886    7.6810137    1433753.5    1433761.2   -862.43102 
  488500   0.10024465    7.6812226    1433753.5    1433761.3   -861.28049 
  489000   0.10023993    7.6795398    1436937.4    1436945.1   -860.60575 
  489500    0.1004608     7.682194    1439996.5    1440004.2   -860.14172 
  490000   0.10064916    7.6820157    1441151.4    1441159.2   -861.92344 
  490500   0.10008651    7.6812227    1442158.3    1442166.1   -862.37469 
  491000    0.1004961    7.6835082    1443941.9    1443949.6    -858.3498 
  491500   0.10077748    7.6833138    1444761.1    1444768.8   -859.67039 
  492000   0.10008571       7.6842    1446204.8    1446212.6   -859.18877 
  492500   0.10012221    7.6850999    1447481.5    1447489.3   -858.35976 
  493000   0.10021743    7.6854104      1447815    1447822.7    -859.4212 
  493500   0.10018682    7.6857291    1448831.1    1448838.9   -860.74328 
  494000  0.099983991    7.6875759    1448831.2    1448838.9   -857.01403 
  494500   0.10069868    7.6881545    1449572.9    1449580.7   -860.28184 
  495000   0.10038378    7.6889443    1449361.3    1449369.1    -861.2754 
  495500   0.10028433    7.6890694    1448901.7    1448909.5   -861.31146 
  496000   0.10074552    7.6908443    1448562.4    1448570.2   -859.93187 
  496500   0.10077763    7.6912353    1448185.2      1448193   -860.63921 
  497000   0.10018668    7.6915805    1447435.8    1447443.5   -859.96509 
  497500   0.10064064    7.6905662    1447233.6    1447241.3   -860.49645 
  498000   0.10051557    7.6913464    1445918.6    1445926.4    -860.8241 
  498500    0.1004707    7.6925317    1444754.3    1444762.1   -859.26675 
  499000   0.10017574    7.6928371    1444754.3      1444762   -859.31676 
  499500    0.1003837     7.695324    1444584.2    1444591.9   -860.87815 
  500000   0.10022068    7.6953792    1443007.9    1443015.6   -859.20642 
  500500   0.10058197    7.6957599      1442650    1442657.7   -862.69535 
  501000   0.10043863    7.6959747    1442649.9    1442657.7   -859.70068 
  501500   0.10027511    7.6963781    1443188.5    1443196.3   -859.18841 
  502000   0.10055833    7.6972388    1443437.8    1443445.5   -859.11537 
  502500   0.10061472    7.6961282    1441262.6    1441270.3   -861.19579 
  503000   0.10064653    7.6984446    1438891.7    1438899.4   -858.68806 
  503500  0.099973025    7.6988537    1437180.4    1437188.1   -860.95393 
  504000  0.099713961     7.699995      1434855    1434862.8   -859.82427 
  504500   0.10014513    7.7014125    1434855.1    1434862.8   -858.29785 
  505000   0.10065671    7.7028168    1437508.8    1437516.5    -862.5666 
  505500      0.10052    7.7034544      1438046    1438053.8   -861.88321 
  506000   0.10007466     7.704724    1439349.3      1439357   -860.26245 
  506500   0.10035289    7.7028602    1439349.3      1439357   -859.69773 
  507000   0.10049964    7.7037706    1442208.1    1442215.9   -858.51281 
  507500   0.10018178    7.7035264    1443729.9    1443737.7   -859.63869 
  508000  0.099989426    7.7031967    1443954.1    1443961.9   -859.35938 
  508500    0.1002167    7.7027153    1443954.2      1443962   -860.46564 
  509000   0.10073186    7.7010927    1445829.4    1445837.1   -861.65859 
  509500   0.10028346    7.7009806    1447639.7    1447647.4   -859.76269 
  510000   0.10009031    7.7023565    1448691.3      1448699   -861.31109 
  510500   0.10047377     7.702349    1450384.8    1450392.6   -861.20123 
  511000   0.10015645    7.7008849    1452470.7    1452478.5    -860.1854 
  511500   0.10049692    7.7001496    1452470.7    1452478.4   -858.63455 
  512000   0.10040213    7.7003668    1454330.4    1454338.2   -859.73011 
  512500   0.10045458    7.7006879    1455520.4    1455528.2   -860.52103 
  513000   0.10039654    7.6991587    1455961.7    1455969.5   -860.39612 
  513500    0.1003668    7.6982339    1457345.2      1457353   -860.19369 
  514000   0.10023867     7.698224    1458712.3    1458720.1    -860.4756 
  514500   0.10011467    7.6984114    1458282.1    1458289.9   -858.49449 
  515000   0.10070475    7.6972915    1461558.8    1461566.5   -859.64608 
  515500   0.10055363    7.6992664    1460945.7    1460953.5   -857.84143 
  516000   0.10066555    7.6981233    1463873.7    1463881.4   -858.82145 
  516500   0.10044581    7.6975674    1463873.7    1463881.5   -861.46781 
  517000   0.10056158    7.6973809    1464376.9    1464384.7   -859.20473 
  517500   0.10060337    7.6979885    1465828.8    1465836.6   -862.13688 
  518000    0.1004433    7.6979612    1466446.6    1466454.3   -861.90606 
  518500   0.10037136    7.6987661    1468702.3    1468710.1   -862.73419 
  519000    0.1004743    7.6991503      1469938    1469945.8   -859.22266 
  519500    0.1004412    7.7008253    1469643.5    1469651.3   -858.29319 
  520000   0.10017513    7.7010344    1469153.3      1469161   -860.53056 
  520500   0.10048161    7.6998176    1469555.6    1469563.4   -860.30551 
  521000   0.10000623    7.7002541      1469687    1469694.7   -862.21995 
  521500   0.10024263    7.7032143      1470803    1470810.8   -859.09135 
  522000   0.10037887    7.7011257    1469605.5    1469613.3   -858.81433 
  522500   0.10081466    7.7013196    1469532.7    1469540.5    -859.6679 
  523000   0.10013618    7.7008279    1470878.8    1470886.6   -861.36913 
  523500   0.10050306    7.6998396    1470976.8    1470984.5   -858.77813 
  524000   0.10044934    7.6998868    1472833.3      1472841   -862.28053 
  524500   0.10032173    7.7004672    1472751.8    1472759.6   -860.47246 
  525000   0.10017943    7.7006523    1471675.5    1471683.3   -859.26166 
  525500   0.10074839    7.7015244    1470279.4    1470287.2   -860.07814 
  526000   0.10058264    7.7008935    1467745.3    1467753.1   -860.44236 
  526500   0.10072559    7.7004465    1467745.2      1467753   -856.96496 
  527000    0.1001656    7.6993301    1466185.5    1466193.3   -859.86846 
  527500   0.10050365    7.6976013    1463111.4    1463119.1   -861.56726 
  528000   0.10082698    7.6991013    1462299.6    1462307.4   -858.43559 
  528500   0.10042972    7.7003976    1461384.8    1461392.5   -859.84456 
  529000   0.10038009     7.699939    1458918.3    1458926.1   -862.20657 
  529500   0.10038806    7.7003013    1458614.6    1458622.4   -860.07074 
  530000   0.10029086    7.6989647    1459625.7    1459633.4   -860.52189 
  530500   0.10027328    7.6994931    1458827.5    1458835.2   -861.05779 
  531000   0.10006758    7.6981683    1458827.3    1458835.1   -859.99418 
  531500   0.10013134     7.699181    1457874.9    1457882.6   -860.87037 
  532000   0.10038176    7.6990637    1458451.9    1458459.6   -860.13574 
  532500   0.10039196     7.699277    1460035.2      1460043   -859.92987 
  533000   0.10026157    7.6996862    1458568.8    1458576.5   -862.06009 
  533500   0.10051702    7.6984521    1459334.1    1459341.8   -860.21077 
  534000   0.10027143    7.6997239    1459173.2      1459181   -860.27195 
  534500   0.10028821    7.6994229      1458942    1458949.8   -862.40261 
  535000   0.10067358    7.6983574      1459867    1459874.8   -863.31799 
  535500   0.10066634    7.6988579    1459866.9    1459874.7   -860.80169 
  536000   0.10007919    7.6984957    1459446.4    1459454.2   -858.81244 
  536500   0.10018388    7.6967768    1459062.6    1459070.4   -859.95407 
  537000   0.10051078    7.6973714    1459609.4    1459617.1   -859.58065 
  537500   0.10063638    7.6961246    1459805.2      1459813   -861.66568 
  538000   0.10031957    7.6970455    1460250.8    1460258.6   -859.72467 
  538500   0.10025751    7.6976791    1459956.9    1459964.7   -860.30939 
  539000   0.10065746    7.6954952    1461307.8    1461315.6   -860.03285 
  539500   0.10052785    7.6940152    1462447.5    1462455.2   -858.88485 
  540000   0.10067193    7.6934135    1461759.4    1461767.1   -861.38772 
  540500   0.10064138     7.693095    1462732.5    1462740.3   -861.28706 
  541000   0.10015778    7.6922474    1466360.4    1466368.2   -860.78635 
  541500   0.10063473    7.6920517    1466360.4    1466368.2   -860.23739 
  542000   0.10048086    7.6918211    1467953.9    1467961.7   -861.38001 
  542500   0.10036557    7.6933069    1471897.8    1471905.6   -861.73166 
  543000    0.1003292    7.6914762    1475196.3    1475204.1   -860.22335 
  543500   0.10067044    7.6896136    1475939.8    1475947.6   -858.79075 
  544000   0.10043671    7.6884673    1475939.9    1475947.7    -862.4023 
  544500   0.10064686    7.6888031    1476942.8    1476950.6    -862.3389 
  545000   0.10073947    7.6894037    1479569.1    1479576.8    -859.5683 
  545500   0.10035225    7.6897034    1479050.6    1479058.3   -860.65449 
  546000   0.10010387    7.6901179    1481287.7    1481295.4   -859.51726 
  546500   0.10053389    7.6894269    1481287.7    1481295.4   -861.03676 
  547000   0.10042561    7.6893147    1484115.1    1484122.9   -859.25785 
  547500   0.10026146    7.6901361    1484611.8    1484619.5   -860.69862 
  548000   0.10065042    7.6910485    1484497.6    1484505.4   -861.94351 
  548500   0.10052502    7.6919394    1485225.2      1485233   -858.75676 
  549000   0.10083906    7.6932724    1485321.8    1485329.6   -860.30609 
  549500   0.10054858    7.6940731    1485067.9    1485075.7   -859.31708 
  550000   0.10035826    7.6930485      1486961    1486968.8   -857.59023 
  550500   0.10017484     7.694574    1486961.2    1486968.9   -861.78618 
  551000   0.10048802    7.6940463    1484743.3    1484751.1     -861.075 
  551500   0.10077714    7.6943729    1483496.3      1483504   -860.33258 
  552000   0.10065481    7.6932016    1483005.5    1483013.3   -861.23989 
  552500   0.10018238     7.691668    1481493.9    1481501.7   -858.84928 
  553000   0.10078058    7.6926811    1480214.9    1480222.7   -858.51224 
  553500    0.1004247    7.6926226    1480082.2      1480090   -858.76397 
  554000   0.10085738    7.6932847    1479441.9    1479449.7   -860.64264 
  554500   0.10047385    7.6934524    1478690.4    1478698.2   -858.60449 
  555000   0.10066953    7.6939035    1480910.3    1480918.1   -860.28104 
  555500   0.10068059    7.6940448      1482097    1482104.8   -860.36507 
  556000    0.1004705    7.6942144    1479991.3    1479999.1   -861.34997 
  556500  0.099966851    7.6947804    1478541.4    1478549.1   -858.55119 
  557000   0.10042254    7.6948262    1478922.8    1478930.5   -859.25289 
  557500   0.10063953    7.6965877    1477883.6    1477891.4   -859.47356 
  558000   0.10068635    7.6965448      1477181    1477188.8   -859.38189 
  558500  0.099936406    7.6961594      1479530    1479537.7   -859.49996 
  559000   0.10035683    7.6966946    1478607.4    1478615.1   -861.27303 
  559500   0.10064306     7.696243    1479142.9    1479150.7   -862.67442 
  560000    0.1000699    7.6967319    1478777.9    1478785.6   -861.71073 
  560500   0.10037779    7.6987238    1477716.6    1477724.4   -860.04246 
  561000    0.1002583    7.6975787    1476282.2      1476290   -861.71659 
  561500   0.10039262    7.6976992      1474739    1474746.8   -861.44232 
  562000   0.10055453    7.6989278    1473182.3    1473190.1   -861.15276 
  562500   0.10025496    7.6971719    1472227.3      1472235   -859.85257 
  563000   0.10012367    7.6986039    1469534.5    1469542.3   -858.86029 
  563500   0.10074114    7.6982146    1467154.2    1467161.9   -860.63251 
  564000  0.099876446    7.6975535    1466293.3    1466301.1    -860.9788 
  564500   0.10056147    7.6995457    1466293.4    1466301.2   -862.04179 
  565000   0.10061357     7.699655    1463969.8    1463977.6   -861.92068 
  565500   0.10030365    7.6995077    1462690.6    1462698.4   -856.74043 
  566000   0.10020036    7.6988186    1462928.6    1462936.3   -860.34053 
  566500    0.1000442    7.6999858    1462053.9    1462061.6   -859.89868 
  567000   0.10055531    7.6992905    1462053.9    1462061.7   -858.46893 
  567500   0.10017362    7.6996733    1461045.7    1461053.5   -858.64404 
  568000   0.09999433    7.6992431    1459950.4    1459958.2   -859.68202 
  568500   0.10024397    7.7008677    1459008.2    1459015.9     -860.779 
  569000   0.10039563    7.7005106    1458576.9    1458584.7   -858.91434 
  569500   0.10035288    7.7008375    1456513.4    1456521.2   -860.37948 
  570000   0.10001385    7.7010303    1457118.2      1457126   -861.30234 
  570500   0.10016599    7.6989802    1455139.6    1455147.3    -857.7675 
  571000   0.10026505    7.6997971    1456432.8    1456440.6   -859.80996 
  571500   0.10018712    7.7001634    1452062.6    1452070.3   -860.31698 
  572000   0.10056059     7.699067    1451124.1    1451131.9   -858.84419 
  572500   0.10014223    7.7001121    1451124.1    1451131.9   -858.09053 
  573000   0.10063999    7.6997516    1448164.9    1448172.7   -860.19355 
  573500   0.10035697     7.699171    1445424.2      1445432   -860.67034 
  574000   0.10091951     7.699479    1440777.5    1440785.2   -860.51401 
  574500   0.10109453    7.6983495    1440777.6    1440785.3   -859.45018 
  575000   0.10034961    7.6988778    1440201.5    1440209.2   -860.18733 
  575500   0.10021003    7.6984761    1440934.6    1440942.4   -860.20644 
  576000   0.10047816     7.698652      1440351    1440358.8   -859.98599 
  576500   0.10016082    7.6985655    1440272.9    1440280.7   -862.29166 
  577000   0.10039387    7.7001162    1438972.3    1438980.1    -859.8655 
  577500   0.10018642    7.6986515    1440585.9    1440593.7   -859.91255 
  578000   0.10035508    7.6984751    1441783.6    1441791.4   -856.40541 
  578500   0.10080763    7.6980854    1443186.5    1443194.3   -859.61519 
  579000   0.10031187    7.6986769    1443186.5    1443194.2   -861.37208 
  579500   0.10058157    7.6981094    1443119.7    1443127.5   -859.25072 
  580000   0.10044477     7.696689    1445508.8    1445516.6   -860.70649 
  580500   0.10051704    7.6968061    1446442.8    1446450.5   -860.68377 
  581000   0.10047523    7.6966974    1447115.8    1447123.5   -862.57414 
  581500   0.10049653    7.6996935    1448606.8    1448614.6   -861.15821 
  582000   0.10067473    7.6990571    1449640.1    1449647.9    -860.0101 
  582500   0.10018231    7.6990201    1451943.4    1451951.2   -859.70585 
  583000   0.10047918    7.6982134    1451943.3      1451951   -863.03208 
  583500   0.10049285    7.6986502    1454112.8    1454120.6   -860.53102 
  584000  0.099805634     7.699904    1457312.4    1457320.2   -859.27133 
  584500   0.10013924    7.7014675    1457158.5    1457166.3   -861.03762 
  585000   0.10046058    7.7019618    1457158.5    1457166.3    -861.2034 
  585500   0.10049982    7.7023168    1459708.9    1459716.7   -862.25073 
  586000   0.10065075    7.7033004    1462762.7    1462770.5   -859.99831 
  586500   0.10049434    7.7017093      1463674    1463681.8   -859.06225 
  587000   0.10032041    7.7018583    1466520.1    1466527.8   -861.21527 
  587500   0.10012785    7.7034538    1468927.1    1468934.8   -859.73923 
  588000   0.10051407    7.7031251    1469252.2      1469260   -864.04635 
  588500   0.10034705    7.7035324      1471063    1471070.8    -862.6973 
  589000    0.1006356    7.7044621    1472446.7    1472454.5   -859.72857 
  589500    0.1006748    7.7045848    1472446.6    1472454.4   -861.41381 
  590000   0.10087001    7.7048723    1471602.8    1471610.6   -862.08013 
  590500   0.10018829    7.7039536    1475072.5    1475080.3   -860.58381 
  591000   0.10041259     7.705852    1475765.4    1475773.1   -860.81213 
  591500   0.10025131     7.705353    1479148.6    1479156.4   -859.75675 
  592000   0.10038455    7.7050834    1479316.6    1479324.4    -859.2994 
  592500   0.10005324    7.7060454    1480949.8    1480957.6    -859.6429 
  593000   0.10008681    7.7062491    1483242.4    1483250.2   -861.99356 
  593500   0.10032017    7.7050456    1484237.7    1484245.5   -860.11665 
  594000   0.10008715    7.7057196    1485243.1    1485250.8   -859.72718 
  594500   0.10036516    7.7075849    1485429.4    1485437.2   -860.80052 
  595000   0.10002325    7.7092637    1486725.9    1486733.7   -861.07117 
  595500   0.10026447    7.7120561    1488615.8    1488623.6   -859.13196 
  596000  0.099926237     7.713474    1488899.2      1488907   -862.22005 
  596500   0.10060634    7.7128087    1489354.1    1489361.9   -860.03047 
  597000   0.10054073    7.7131028    1488411.3    1488419.1   -860.17983 
  597500   0.10022312    7.7133203    1488411.4    1488419.1   -861.97328 
  598000   0.10010276    7.7133943    1490163.4    1490171.2    -862.8136 
  598500   0.10057976    7.7132099    1490209.6    1490217.3    -859.8524 
  599000  0.099970154    7.7129249    1489430.6    1489438.4   -860.69982 
  599500   0.10011033    7.7134811    1490254.6    1490262.3   -860.63276 
  600000   0.10041651    7.7143012    1491385.7    1491393.5    -860.2528 
  600500   0.10075414    7.7136748    1491385.5    1491393.3   -861.20281 
  601000  0.099951891    7.7144652    1490089.4    1490097.2   -859.57236 
  601500   0.10029009    7.7136002    1490742.8    1490750.5   -859.07289 
  602000   0.10039616    7.7123533    1491280.7    1491288.5   -862.84771 
  602500   0.10054762    7.7137065    1491535.5    1491543.3   -858.97393 
  603000   0.10081073    7.7136149    1492733.2      1492741   -859.75092 
  603500   0.10056517    7.7124651    1492561.5    1492569.3   -862.33179 
  604000   0.10046082    7.7110295    1492483.7    1492491.4   -857.08478 
  604500   0.10041395    7.7112571    1490110.6    1490118.4   -861.75869 
  605000   0.10014025    7.7111154    1491834.7    1491842.5   -860.60781 
  605500   0.10024184    7.7122878    1491834.7    1491842.5   -859.01629 
  606000   0.10003983    7.7138616    1490930.2      1490938    -860.5796 
  606500   0.10032861    7.7129242      1494401    1494408.8   -858.65678 
  607000   0.10046176    7.7133195      1497970    1497977.8   -861.25414 
  607500   0.10052213    7.7134721    1500216.5    1500224.2    -860.1476 
  608000   0.10093073    7.7123423      1502501    1502508.7   -862.62371 
  608500   0.10048748    7.7125013    1504096.6    1504104.3   -863.22025 
  609000   0.10035306     7.712943    1504096.5    1504104.3   -860.70528 
  609500   0.10072628     7.711168    1503293.3    1503301.1   -859.41679 
  610000   0.10060915    7.7123904      1505945    1505952.7   -861.65996 
  610500   0.10000351    7.7136614    1505945.1    1505952.8   -859.35597 
  611000   0.10073735    7.7133651    1506828.2      1506836   -860.98042 
  611500   0.10062038    7.7124608    1506816.6    1506824.4   -858.99166 
  612000   0.10061408    7.7139827    1505343.8    1505351.6   -860.18463 
  612500   0.10008979    7.7157177    1505343.8    1505351.6   -858.22023 
  613000   0.10020335    7.7149853    1505767.9    1505775.7   -860.06071 
  613500   0.10016194    7.7143037      1503496    1503503.8   -861.06138 
  614000   0.10040125    7.7144356    1502041.9    1502049.7   -860.64399 
  614500   0.10042426    7.7151283    1500512.6    1500520.4   -860.70225 
  615000   0.10044313    7.7162042    1497766.2      1497774   -860.50526 
  615500   0.10039086    7.7156461    1496877.8    1496885.6   -859.68668 
  616000   0.10018122    7.7153878    1496877.9    1496885.7   -863.07632 
  616500    0.1001152    7.7149612    1495320.6    1495328.4   -861.79764 
  617000  0.099997642    7.7153777    1494361.7    1494369.4   -861.00889 
  617500   0.10033309     7.715774    1492169.3    1492177.1   -863.07802 
  618000   0.10028749    7.7160996      1489712    1489719.8   -860.24886 
  618500   0.10042645    7.7161461    1487708.6    1487716.4   -861.40187 
  619000  0.099956237    7.7154946    1487792.9    1487800.7   -858.97141 
  619500   0.10029856    7.7149768    1487792.9    1487800.7   -858.85472 
  620000   0.10028062    7.7149823    1483691.9    1483699.6   -860.06682 
  620500   0.10058788    7.7144696    1480954.8    1480962.6   -860.78404 
  621000   0.10035032    7.7145529    1479186.6    1479194.4   -860.66902 
  621500   0.10001899    7.7149189    1479388.4    1479396.2   -858.99147 
  622000   0.10028274     7.713766    1481629.1    1481636.9   -860.04766 
  622500    0.1002007    7.7139025    1481386.9    1481394.7   -860.68881 
  623000   0.10041079    7.7126427    1480598.7    1480606.5   -859.03813 
  623500   0.10027685    7.7132025    1480247.5    1480255.3   -860.13939 
  624000   0.10003925    7.7120962    1479692.8    1479700.6   -859.02246 
  624500   0.10081072    7.7118219    1478582.1    1478589.9   -860.90087 
  625000   0.10008937    7.7117041    1480253.2      1480261   -858.47359 
  625500   0.10106841     7.711755      1478856    1478863.8   -863.82708 
  626000   0.10055401    7.7112067    1478446.9    1478454.7   -861.86161 
  626500   0.10035012    7.7111673    1477359.7    1477367.5   -861.62668 
  627000   0.10034836    7.7102885    1477452.7    1477460.5   -860.61254 
  627500   0.10037751    7.7083167    1478648.2    1478655.9   -862.62547 
  628000  0.099928649    7.7073833    1475864.6    1475872.4    -859.2677 
  628500   0.10071382    7.7068747    1475864.4    1475872.2   -860.43943 
  629000    0.1003405    7.7063617      1475259    1475266.8   -860.70781 
  629500   0.10027631    7.7065855    1476187.6    1476195.4   -860.21101 
  630000   0.10071891    7.7072241    1475172.1    1475179.9   -860.27757 
  630500    0.1005184    7.7078205    1476181.4    1476189.2   -861.28324 
  631000   0.10032739    7.7074507    1476186.7    1476194.5   -862.57293 
  631500  0.099892251    7.7059106      1475509    1475516.8   -858.40149 
  632000   0.10016758    7.7047201    1476260.2      1476268   -863.38083 
  632500    0.1000203    7.7038562    1477585.9    1477593.7    -860.1143 
  633000   0.10021499    7.7032476    1478914.2      1478922    -859.4844 
  633500   0.10088585    7.7023584      1477673    1477680.8   -862.74823 
  634000   0.10035006     7.703012    1477979.4    1477987.2   -858.79877 
  634500   0.10052709    7.7022163    1478771.1    1478778.9   -861.70219 
  635000   0.10020762    7.7015314    1478619.8    1478627.6   -858.67616 
  635500   0.10028149    7.7000325    1479785.7    1479793.5   -860.52791 
  636000   0.10039382    7.7017425    1480207.6    1480215.4    -858.6557 
  636500  0.099867414    7.7003138    1483103.4    1483111.2    -860.2364 
  637000  0.099821194    7.6988241    1483916.3      1483924   -862.09417 
  637500   0.10047421    7.6993026    1486559.2      1486567   -862.76583 
  638000   0.10019527    7.6988928    1486559.3      1486567   -859.88872 
  638500   0.10030142    7.6987381      1489993    1490000.7   -861.15356 
  639000   0.10066996    7.6986646    1491840.6    1491848.4    -861.1408 
  639500    0.1001723    7.6982168    1494207.4    1494215.2   -859.92662 
  640000   0.10040506     7.698486    1496060.3    1496068.1    -859.3733 
  640500   0.10051864    7.6991017    1497937.6    1497945.4   -859.68062 
  641000   0.10071555    7.6992647    1498899.7    1498907.5   -861.02985 
  641500    0.1001401    7.6975327    1500107.5    1500115.3   -859.93696 
  642000   0.10061194    7.6987302    1500047.6    1500055.3   -860.54687 
  642500   0.10015183    7.6975392    1501763.7    1501771.4    -858.0634 
  643000   0.10018656    7.6992726    1504719.6    1504727.4   -860.90819 
  643500  0.099752153     7.699351    1506849.5    1506857.2   -859.43586 
  644000   0.10015218     7.698091    1508043.2    1508050.9   -860.52939 
  644500   0.10047287    7.6976606    1508043.2    1508050.9   -861.74131 
  645000  0.099833769    7.6979175    1509165.6    1509173.4   -859.80711 
  645500   0.10043951    7.6979338    1509832.4    1509840.2   -861.37747 
  646000   0.10098405    7.6978564    1510634.8    1510642.6   -862.03133 
  646500   0.10038993    7.6983772    1512370.7    1512378.5   -858.74894 
  647000   0.10052853    7.6984345      1513113    1513120.7   -862.43284 
  647500   0.10006616    7.6981061    1513979.4    1513987.2   -862.03266 
  648000   0.10018647    7.6983367    1513998.1    1514005.8   -860.07022 
  648500   0.10055325    7.6973049    1515201.6    1515209.4   -858.98357 
  649000   0.10089324    7.6973074    1516922.9    1516930.7   -861.46917 
  649500   0.10013416     7.697242    1521104.5    1521112.3   -860.93963 
  650000    0.1002636    7.6960206    1521367.7    1521375.4   -861.98706 
  650500   0.10062957    7.6973757    1522142.6    1522150.4   -861.82461 
  651000   0.10048104    7.6965309      1522893    1522900.8   -860.78714 
  651500   0.10100259    7.6971226    1522893.1    1522900.8   -859.14648 
  652000   0.10029619    7.6973647    1523235.5    1523243.3   -862.68215 
  652500    0.1002548    7.6979555    1522073.9    1522081.7   -859.86405 
  653000   0.10045111    7.6973544    1520730.7    1520738.5   -859.07766 
  653500   0.10028194    7.6980098    1519749.2      1519757   -860.66915 
  654000   0.10033332    7.6977118    1517388.5    1517396.3   -861.94569 
  654500   0.10033672    7.6977211    1516312.9    1516320.7   -859.18395 
  655000   0.10035825    7.6983285      1514145    1514152.8   -860.81071 
  655500  0.099964967    7.6985588    1514144.9    1514152.7   -860.83331 
  656000   0.10002793    7.6974134    1513672.4    1513680.2   -861.13724 
  656500   0.09990642    7.6979599    1510336.9    1510344.7   -860.10541 
  657000   0.10040061    7.6983209    1506710.4    1506718.1   -861.21921 
  657500   0.10032382    7.6982412    1505177.9    1505185.7   -859.69609 
  658000   0.10032744    7.6970312    1502923.1    1502930.9   -860.44162 
  658500   0.10026909    7.6955144      1502923    1502930.8   -861.66364 
  659000    0.1003503    7.6954775    1501016.9    1501024.7   -857.88688 
  659500   0.10016682    7.6962414    1501880.8    1501888.5   -860.32053 
  660000   0.10032638     7.696869    1499473.7    1499481.4   -861.41956 
  660500    0.1001363    7.6963044    1496918.8    1496926.5   -859.20479 
  661000   0.10033128    7.6958963    1496047.9    1496055.7   -858.71406 
  661500   0.10031252    7.6976427    1496354.1    1496361.9   -859.02082 
  662000  0.099845475    7.6965891    1494851.2    1494858.9   -863.49535 
  662500   0.10047642    7.6976936    1496349.8    1496357.6   -858.19345 
  663000   0.10005161    7.6975334    1494276.3    1494284.1   -860.46664 
  663500   0.10045094    7.6990634    1494752.4    1494760.2   -860.89569 
  664000   0.10043705    7.7001374    1495292.1    1495299.8   -861.74115 
  664500   0.10056442     7.700509      1494115    1494122.8   -862.14072 
  665000   0.10043091    7.7010653      1495531    1495538.8   -859.36587 
  665500   0.10044778    7.6996165    1492868.2      1492876   -857.88669 
  666000    0.1002684    7.7008991    1492868.2      1492876   -862.04188 
  666500   0.10032875    7.7008638    1490092.1    1490099.9   -860.74722 
  667000   0.10054418    7.7025016    1490150.2      1490158   -861.46359 
  667500   0.10038929    7.7028113    1488336.1    1488343.9   -861.75665 
  668000   0.10019381    7.7035064    1489595.2    1489602.9   -860.81021 
  668500   0.10007276    7.7047604    1487441.4    1487449.2    -860.4705 
  669000   0.10063584    7.7055027    1487441.4    1487449.2   -860.76467 
  669500   0.10037535      7.70417    1487413.8    1487421.6   -860.94412 
  670000   0.10028478    7.7054853    1487909.4    1487917.2   -859.07246 
  670500   0.10085617    7.7066059    1490002.9    1490010.7   -857.60458 
  671000   0.10038907    7.7075634      1492338    1492345.8   -860.48921 
  671500  0.099844732    7.7076239    1492338.1    1492345.8   -857.41415 
  672000   0.10059075    7.7076755    1491701.1    1491708.9   -859.96758 
  672500   0.10059492    7.7073147    1492370.9    1492378.7    -859.6258 
  673000   0.10078362    7.7097052    1490826.3    1490834.1   -862.89445 
  673500   0.10075559    7.7099407    1488411.7    1488419.5   -860.64579 
  674000   0.10003027    7.7100691    1487753.2      1487761    -861.3989 
  674500   0.10010637    7.7103236    1487753.3    1487761.1   -858.42918 
  675000   0.10051657    7.7119549    1485190.1    1485197.9   -860.50898 
  675500   0.10040215    7.7100026    1485010.5    1485018.3   -858.40284 
  676000   0.10060422    7.7099162    1487264.4    1487272.2   -860.44136 
  676500   0.10053375    7.7097416    1484805.7    1484813.5   -860.29241 
  677000   0.10076133    7.7105072      1486485    1486492.7   -860.35714 
  677500   0.10038833    7.7118484    1488729.2      1488737   -860.19377 
  678000  0.099969289    7.7121116    1488729.3    1488737.1   -858.35664 
  678500    0.1005917    7.7118284    1486459.7    1486467.4   -859.82113 
  679000   0.10068733    7.7110418    1485894.4    1485902.2   -858.47194 
  679500   0.10047615    7.7096279    1483297.9    1483305.7   -861.12369 
  680000   0.10051302    7.7098296    1481836.4    1481844.2   -859.51778 
  680500   0.10036737    7.7107918    1481836.3    1481844.1   -858.84777 
  681000   0.10044244    7.7111586    1481130.6    1481138.4   -860.72199 
  681500   0.10051217    7.7100092    1476938.9    1476946.7   -859.74165 
  682000   0.10063822    7.7110893    1475484.5    1475492.2   -861.84781 
  682500    0.1001089    7.7095516      1474053    1474060.8   -860.12874 
  683000   0.10064864    7.7110793    1474053.1    1474060.9    -859.8793 
  683500   0.10050554    7.7117486    1471297.7    1471305.5   -859.77098 
  684000   0.10066629    7.7126714    1470422.9    1470430.7   -857.38331 
  684500    0.1001037    7.7118946    1468962.3    1468970.1   -861.09693 
  685000   0.10003756    7.7109831    1468327.7    1468335.4    -860.6486 
  685500   0.10059126    7.7127632    1465217.1    1465224.9   -859.93663 
  686000   0.10028944    7.7129015    1464052.3    1464060.1    -857.5976 
  686500   0.10023269    7.7129308      1463745    1463752.7   -859.72745 
  687000   0.10017832    7.7133295    1461675.4    1461683.2   -859.05648 
  687500   0.09996676     7.713673    1461675.5    1461683.3   -861.50316 
  688000   0.10030195     7.713382    1459994.6    1460002.4   -861.07281 
  688500  0.099987956    7.7141607    1458599.4    1458607.2   -857.98781 
  689000   0.10048621    7.7143746    1458142.7    1458150.5   -858.51251 
  689500   0.10021236    7.7143201    1458360.1    1458367.9   -860.00811 
  690000   0.10086635    7.7153756    1458535.1    1458542.9    -859.1987 
  690500   0.10017379    7.7169545    1455169.5    1455177.3   -860.57094 
  691000   0.10002526    7.7176851    1451197.6    1451205.4   -858.36694 
  691500   0.10057757    7.7178178    1451197.4    1451205.2   -859.87267 
  692000   0.10040073    7.7181947    1450385.5    1450393.3   -860.46512 
  692500   0.10060321    7.7183491    1448962.8    1448970.6   -860.10687 
  693000   0.10012274    7.7181388    1448058.7    1448066.5   -859.09399 
  693500   0.10015127    7.7186949    1446727.5    1446735.3   -860.89702 
  694000   0.10056427    7.7186643    1445152.3    1445160.1   -861.45104 
  694500  0.099950956    7.7186762    1444136.9    1444144.6   -859.90443 
  695000   0.10077825    7.7188916    1443681.6    1443689.4   -858.45247 
  695500   0.10037777    7.7203598    1441360.5    1441368.3   -858.12756 
  696000   0.10035083    7.7226867    1440303.2      1440311   -860.59697 
  696500  0.099999922     7.723704    1440922.3    1440930.1   -860.00487 
  697000   0.10045122    7.7238626    1440946.3    1440954.1   -861.51537 
  697500   0.10021737    7.7229908    1439119.7    1439127.5   -860.26314 
  698000  0.099974002    7.7215776    1438366.2      1438374   -860.49335 
  698500   0.10043963    7.7231088    1437486.2      1437494   -860.46026 
  699000   0.10061856    7.7217158    1437486.2      1437494   -861.41558 
  699500   0.10021694    7.7223988    1436282.6    1436290.4   -859.69941 
  700000   0.10016102     7.720545    1435168.7    1435176.5   -859.31717 
  700500    0.1004766    7.7198132    1435168.7    1435176.5   -860.82086 
  701000   0.10025831    7.7181218    1436209.6    1436217.4   -859.62013 
  701500    0.1003465    7.7165182    1436025.4    1436033.2   -860.09584 
  702000   0.10045358    7.7168893    1436754.6    1436762.4   -861.42292 
  702500   0.10035276    7.7160654    1435316.7    1435324.5   -858.92874 
  703000   0.10044981    7.7158586    1435253.5    1435261.3   -861.77528 
  703500   0.10020731    7.7153949    1435253.6    1435261.4   -860.99147 
  704000   0.10033027    7.7151486      1431395    1431402.8   -861.74704 
  704500    0.1002448    7.7137225      1430915    1430922.8    -859.9467 
  705000   0.10020536    7.7135417    1430915.1    1430922.8    -858.9884 
  705500  0.099968562    7.7129339    1432694.6    1432702.4   -860.39792 
  706000    0.1002037    7.7135793    1432694.5    1432702.3   -856.82501 
  706500   0.10059752    7.7140981      1432873    1432880.8   -860.50192 
  707000   0.10045529     7.713575      1433177    1433184.8   -860.08267 
  707500   0.10059811    7.7127569    1431213.6    1431221.3   -861.27265 
  708000   0.10032477     7.711903    1431297.5    1431305.3   -858.98586 
  708500   0.10016978    7.7116087    1431192.7    1431200.5   -859.40299 
  709000   0.10040025    7.7123417    1431192.8    1431200.6   -861.61203 
  709500   0.10028959    7.7099493    1429802.7    1429810.5   -858.60788 
  710000    0.0999463    7.7120686    1427121.9    1427129.7   -859.47834 
  710500   0.10026379    7.7115187      1427122    1427129.8   -860.05284 
  711000   0.10030678    7.7101146    1425159.1    1425166.8   -860.88295 
  711500   0.10032119    7.7087457    1423894.3    1423902.1   -859.37478 
  712000   0.10065779    7.7087414    1425293.4    1425301.2   -859.06266 
  712500  0.099932278    7.7086615    1425141.1    1425148.9   -861.61004 
  713000   0.10017062    7.7084653    1425562.2    1425569.9   -860.89197 
  713500   0.10025721    7.7082368    1424402.7    1424410.4   -856.23876 
  714000   0.10050811    7.7084874    1424402.7    1424410.5   -860.35647 
  714500   0.09992993    7.7082577    1425931.5    1425939.3   -861.08704 
  715000   0.10027647    7.7070492    1428108.1    1428115.9   -859.87527 
  715500   0.10059294    7.7074531    1428176.1    1428183.9   -858.99663 
  716000   0.10022944     7.707931    1428184.6    1428192.4   -858.92729 
  716500    0.1002468    7.7085137    1429562.4    1429570.2   -859.93177 
  717000   0.10076972    7.7075531    1429617.1    1429624.9   -859.22743 
  717500   0.10038313    7.7069571    1429295.3    1429303.1    -858.7772 
  718000  0.099977916    7.7076565    1429295.3    1429303.1   -861.37516 
  718500   0.10002537    7.7073154    1432709.2      1432717    -859.8427 
  719000   0.10018952    7.7080321    1432709.1    1432716.9   -859.45255 
  719500   0.10012337    7.7086049    1435038.6    1435046.4   -861.17636 
  720000   0.10010484    7.7100053    1437859.5    1437867.3   -859.54532 
  720500   0.10054854    7.7089476    1439750.5    1439758.2   -858.12575 
  721000    0.1007203    7.7103847    1444792.3      1444800   -859.75908 
  721500  0.099891586    7.7099091    1445785.1    1445792.9    -859.8634 
  722000   0.10008145    7.7085222    1449564.2      1449572   -859.99832 
  722500   0.10031015    7.7075545    1454344.8    1454352.6   -862.03782 
  723000   0.10038412     7.707173    1456605.4    1456613.2    -860.7771 
  723500   0.10067645    7.7089089    1458658.9    1458666.7   -857.50023 
  724000   0.10048386    7.7090111    1464090.5    1464098.3   -857.39529 
  724500   0.10033359    7.7098374    1467499.5    1467507.3   -859.68933 
  725000   0.10035646    7.7103065    1468374.7    1468382.5   -858.30646 
  725500   0.10041507    7.7095272    1472590.7    1472598.5   -858.51868 
  726000   0.10041686     7.709541    1475290.4    1475298.2   -858.43757 
  726500   0.10003066    7.7113197    1477954.3    1477962.1   -858.02739 
  727000  0.099992793    7.7112861    1478505.1    1478512.9   -861.41919 
  727500   0.10023609    7.7114316    1479458.2      1479466   -860.28701 
  728000   0.10042315    7.7134767    1479458.3    1479466.1   -860.74165 
  728500   0.10009008    7.7141782    1484918.6    1484926.4   -861.50675 
  729000   0.10065091    7.7146086    1485372.7    1485380.5   -860.72942 
  729500   0.10047638    7.7127367    1487393.6    1487401.3   -863.12353 
  730000   0.10012655    7.7157786    1487393.5    1487401.3   -858.88697 
  730500   0.10040665    7.7157027    1490274.5    1490282.3    -861.8915 
  731000   0.10042625    7.7161464    1492002.7    1492010.5   -860.79961 
  731500   0.10046623    7.7153978    1493725.1    1493732.8    -858.6391 
  732000   0.10044528    7.7157297    1496027.2      1496035   -860.14996 
  732500   0.10022959    7.7144676    1496027.1    1496034.9   -859.67815 
  733000   0.10032898    7.7150799    1496754.1    1496761.9   -858.64707 
  733500   0.10006976    7.7150894      1496754    1496761.8   -858.58519 
  734000    0.1002855    7.7174811    1499975.5    1499983.3   -859.60174 
  734500   0.10013067    7.7174901    1502349.3      1502357   -860.82426 
  735000   0.10004321    7.7177549    1501737.3    1501745.1   -857.99957 
  735500   0.10042893    7.7168681    1500235.1    1500242.8    -860.9102 
  736000   0.10039358    7.7184192    1501766.4    1501774.2   -860.65928 
  736500   0.10070839    7.7185202    1500536.9    1500544.7    -859.3921 
  737000   0.10012042    7.7183042    1500536.8    1500544.6   -861.50498 
  737500   0.10027788    7.7193829    1499503.5    1499511.3   -860.75016 
  738000    0.1008969    7.7179428    1500159.3    1500167.1   -859.88834 
  738500   0.10030121    7.7184784    1497277.6    1497285.4   -859.61946 
  739000    0.1004114    7.7180064    1496807.3    1496815.1   -861.38444 
  739500   0.10059857    7.7194773    1496302.2      1496310   -857.69004 
  740000   0.10004091    7.7197952    1496302.3    1496310.1   -859.36361 
  740500   0.10053856    7.7198881    1492053.9    1492061.7   -860.47182 
  741000    0.1003867    7.7209382    1488965.1    1488972.9   -861.20647 
  741500   0.10025682    7.7195028    1485862.4    1485870.2   -861.51976 
  742000   0.10060776     7.719697    1482484.3    1482492.1   -860.81681 
  742500   0.10033603    7.7234945    1478012.7    1478020.5   -856.36479 
  743000    0.1005787    7.7216658    1474750.8    1474758.6   -860.65412 
  743500   0.10053477    7.7222197    1474750.8    1474758.6    -860.3142 
  744000   0.10038283    7.7217388    1470054.3    1470062.1   -862.90375 
  744500   0.10042918    7.7230814    1464837.8    1464845.6   -860.21701 
  745000   0.10030834    7.7249876    1460101.9    1460109.7   -860.17232 
  745500  0.099888436     7.724503    1460101.8    1460109.6   -863.97928 
  746000   0.10074849    7.7242343    1455704.5    1455712.3   -861.70633 
  746500  0.099773846    7.7241572    1451971.5    1451979.3   -859.53519 
  747000   0.10023263    7.7220193    1448392.1    1448399.9   -860.85776 
  747500  0.099776469    7.7218106    1445309.6    1445317.4   -859.94346 
  748000    0.1003533    7.7225033    1445309.7    1445317.5   -860.40228 
  748500   0.10046525    7.7215879    1440380.9    1440388.7   -861.12049 
  749000   0.10017939     7.721997    1438602.2      1438610   -858.74201 
  749500   0.10044732    7.7233702    1438602.3    1438610.1   -859.83671 
  750000   0.10025923    7.7219719    1435305.1    1435312.9   -862.97387 
  750500   0.10072826    7.7222656      1435833    1435840.7   -857.95741 
  751000   0.10017885    7.7215337    1434956.2      1434964   -861.31979 
  751500   0.10044989    7.7204712    1432946.3    1432954.1   -858.58522 
  752000   0.10036285    7.7204319    1433667.7    1433675.5   -859.83706 
  752500   0.10042422    7.7184116    1433414.1    1433421.9    -861.5803 
  753000   0.10030637    7.7182798    1434728.3    1434736.1   -857.86041 
  753500   0.10000904    7.7178217    1436411.9    1436419.7   -858.95567 
  754000   0.10054929    7.7169202    1434949.1    1434956.9   -861.47752 
  754500   0.10058427    7.7164616      1435576    1435583.8   -859.75144 
  755000   0.10056595    7.7181435    1436241.5    1436249.3   -859.03543 
  755500   0.10052367    7.7168195    1437122.3    1437130.1   -861.35488 
  756000   0.10055046    7.7170491    1437488.7    1437496.4   -861.79463 
  756500   0.10038815    7.7174655    1438339.9    1438347.7   -861.28731 
  757000   0.10032707    7.7163688    1438705.8    1438713.6   -860.65225 
  757500   0.10041995    7.7164071    1438705.8    1438713.6    -859.7718 
  758000     0.100533    7.7166224    1436844.5    1436852.3   -859.50875 
  758500   0.10059333    7.7176795    1438873.5    1438881.3    -862.7219 
  759000   0.10047661    7.7173649    1439332.1    1439339.9   -859.89426 
  759500   0.10023609    7.7164761    1441880.2      1441888   -858.61009 
  760000   0.10001296    7.7150683    1441011.6    1441019.4   -857.69044 
  760500   0.10028338    7.7156394    1441346.9    1441354.7   -860.66386 
  761000    0.1003593    7.7132637    1441123.4    1441131.2   -862.04319 
  761500   0.10056669    7.7126834    1441294.6    1441302.3    -861.0213 
  762000   0.10035793    7.7130889    1442443.8    1442451.6   -863.50444 
  762500    0.1000779    7.7125327    1442443.8    1442451.6   -861.41785 
  763000   0.10032878    7.7116635    1440895.6    1440903.4   -859.65848 
  763500   0.10062968    7.7123411    1439874.7    1439882.4    -861.1679 
  764000   0.10013734    7.7138616    1440461.7    1440469.5   -860.61535 
  764500   0.10038043    7.7135968    1440984.5    1440992.3   -862.34592 
  765000   0.10053194    7.7133848    1440935.6    1440943.4   -862.05491 
  765500   0.10041722    7.7134562    1439801.7    1439809.5   -859.96361 
  766000   0.10035702     7.714091    1440754.5    1440762.3   -861.47805 
  766500   0.10060388    7.7143602    1441159.1    1441166.9   -860.76453 
  767000   0.10046987    7.7141956      1442194    1442201.8   -860.64533 
  767500   0.10073252    7.7132707    1442128.9    1442136.7   -860.37192 
  768000   0.10054904    7.7156515    1440812.7    1440820.5    -860.6409 
  768500   0.10069787    7.7161377    1440812.7    1440820.5   -859.58946 
  769000    0.1004415    7.7155521    1440646.2      1440654    -860.2338 
  769500   0.10035134    7.7143611    1438852.3    1438860.1   -858.50399 
  770000    0.1002483    7.7137899      1437737    1437744.8   -862.72266 
  770500   0.10062358    7.7118217      1437737    1437744.8   -861.66659 
  771000   0.10058188    7.7115205    1438545.9    1438553.7   -859.93454 
  771500   0.10059833    7.7104398    1440612.4    1440620.2   -858.82613 
  772000   0.10070108    7.7099137    1442433.3      1442441   -860.79631 
  772500   0.10002334    7.7100556      1442478    1442485.8   -862.25103 
  773000   0.10108008     7.708492    1443990.9    1443998.6   -861.94538 
  773500   0.10032009    7.7097445      1443991    1443998.8   -858.66767 
  774000   0.10047769     7.708575      1442929    1442936.8   -861.12967 
  774500   0.10015362    7.7068668    1441643.6    1441651.4    -859.4734 
  775000   0.10050336    7.7080421    1441285.6    1441293.4   -862.72852 
  775500   0.10041349    7.7076542    1440804.9    1440812.7   -859.70353 
  776000   0.10056959    7.7086666      1440805    1440812.8   -859.04673 
  776500   0.10019296    7.7079572    1441340.3    1441348.1   -860.80125 
  777000    0.1003973    7.7070791    1442150.8    1442158.5   -859.19143 
  777500   0.10088281     7.706308    1443099.2    1443106.9   -860.10589 
  778000   0.10046418    7.7082396    1442828.3    1442836.1    -860.5809 
  778500   0.10053514    7.7069848    1442906.7    1442914.5   -862.51165 
  779000    0.1000492    7.7089247    1442005.8    1442013.5   -857.10184 
  779500   0.10039085    7.7087823    1442748.7    1442756.5   -858.82273 
  780000   0.10040688     7.708839    1442183.3      1442191   -861.44607 
  780500   0.10059144    7.7093788    1440803.3    1440811.1   -859.96832 
  781000   0.10058885    7.7097415      1440159    1440166.7   -861.38529 
  781500   0.10042332    7.7087967    1438588.3    1438596.1   -858.70233 
  782000   0.10080934    7.7105699    1438054.7    1438062.5   -859.97337 
  782500   0.10046468    7.7103916    1439349.7    1439357.5   -861.07594 
  783000   0.10028708    7.7107484    1439349.7    1439357.5   -859.54804 
  783500   0.10054816    7.7089549    1439375.2      1439383     -861.001 
  784000   0.10061422    7.7097882    1437735.2    1437742.9   -861.92106 
  784500   0.10037524    7.7102956    1439996.4    1440004.1   -859.04249 
  785000   0.10022417     7.710275    1440976.5    1440984.3   -860.33562 
  785500   0.10031437    7.7090284    1440976.5    1440984.2   -863.20987 
  786000   0.10010078    7.7091909    1440112.8    1440120.5   -861.22702 
  786500   0.10050923    7.7086922      1439273    1439280.8    -861.1843 
  787000    0.1002089    7.7077306      1439273    1439280.7    -859.9815 
  787500   0.10049888    7.7078087    1438047.5    1438055.3   -857.93934 
  788000   0.10020806    7.7083215      1438351    1438358.7    -860.3016 
  788500   0.10017294    7.7078242    1438306.3    1438314.1   -860.28584 
  789000   0.10021742      7.70763      1440919    1440926.8   -859.90301 
  789500   0.10061896    7.7064218    1441754.7    1441762.5    -861.0307 
  790000   0.10062959    7.7049426    1442325.6    1442333.4   -860.43715 
  790500   0.10021801    7.7039278    1442654.5    1442662.3   -859.29589 
  791000   0.10071476    7.7048098    1445476.7    1445484.5   -859.39675 
  791500   0.10016282     7.705251    1445476.7    1445484.5   -859.28168 
  792000   0.10085211    7.7027685    1446501.2    1446508.9   -858.67956 
  792500   0.10091117    7.7024171    1447754.4    1447762.2   -861.24839 
  793000   0.10061076    7.7037775      1448109    1448116.8   -859.67692 
  793500  0.099957455    7.7028531    1449032.8    1449040.5   -860.41394 
  794000   0.10066749    7.7032724    1450989.1    1450996.9   -859.84278 
  794500   0.10036832    7.7028557    1452068.3    1452076.1   -859.26948 
  795000    0.1006174    7.7021057    1452068.3    1452076.1   -860.80383 
  795500   0.10029042    7.7023956      1451815    1451822.8   -858.25232 
  796000    0.1001201     7.702134      1453518    1453525.7   -860.19777 
  796500   0.10077589    7.7010061    1453404.2      1453412   -860.52037 
  797000   0.10063771    7.7009449    1453404.3    1453412.1   -860.78009 
  797500   0.10059312    7.6992528    1455137.7    1455145.5   -858.68827 
  798000   0.10050451    7.6985721    1455409.4    1455417.2   -861.00255 
  798500   0.10074468    7.6994598    1455202.9    1455210.7   -859.19211 
  799000   0.10062345    7.6988787    1455202.9    1455210.6   -860.62108 
  799500   0.10018239    7.6986321    1455769.9    1455777.7   -858.63151 
  800000   0.10044511    7.7007008    1458653.2      1458661   -859.67442 
  800500   0.10082062    7.7007778    1458653.2    1458660.9   -860.79438 
  801000   0.10057485     7.700099    1459886.5    1459894.3    -858.6751 
  801500   0.10056958    7.7010272    1461165.6    1461173.3   -859.77826 
  802000   0.10062554    7.7011323    1459560.4    1459568.2   -860.71231 
  802500   0.10033468    7.7030539    1459560.3      1459568   -860.38109 
  803000   0.10060399    7.7030883      1458533    1458540.8   -858.77719 
  803500   0.10096286    7.7023056    1458440.3    1458448.1   -860.63294 
  804000   0.10034951    7.7004004      1459171    1459178.8   -860.50549 
  804500   0.10042351    7.7014717    1457712.2      1457720   -861.02423 
  805000   0.10053598     7.701577    1457394.4    1457402.2   -861.51416 
  805500   0.10063176    7.7020281    1454749.9    1454757.7   -862.41464 
  806000   0.10040562    7.7027198      1454750    1454757.8   -859.85997 
  806500   0.10020387    7.7032187    1454882.7    1454890.5   -859.88055 
  807000   0.10044401    7.7013251    1455201.9    1455209.7   -859.89992 
  807500   0.10058801    7.7016588    1454193.3      1454201   -860.85212 
  808000   0.10085273    7.7018387    1454955.3    1454963.1   -856.96027 
  808500    0.1005361    7.7010732    1452497.8    1452505.5   -861.38226 
  809000   0.10078523    7.7017901    1453590.4    1453598.2    -861.3643 
  809500   0.10060936    7.7027953    1452418.4    1452426.2   -859.61505 
  810000   0.10083933    7.7021032    1451896.5    1451904.3    -860.3792 
  810500  0.099983509    7.7020409    1450976.6    1450984.3   -861.66039 
  811000   0.10093785    7.7012534    1449359.3    1449367.1   -858.50419 
  811500   0.10036266    7.7020049    1449359.3    1449367.1   -861.15656 
  812000   0.10038733    7.7021334    1446079.7    1446087.5   -859.45125 
  812500   0.10068911    7.7020102    1443879.9    1443887.7   -860.61386 
  813000   0.10003482    7.7002787    1443319.6    1443327.4   -859.45855 
  813500   0.10001847    7.7000888    1442417.5    1442425.3   -858.61521 
  814000   0.10049946    7.7004708      1443475    1443482.8   -858.53252 
  814500   0.10052404    7.7006162    1443460.6    1443468.4   -861.96778 
  815000   0.10068772    7.6987794    1443460.6    1443468.3   -859.95564 
  815500   0.10036721    7.6981263    1443512.8    1443520.5   -861.75364 
  816000   0.10063415    7.6967328    1443512.7    1443520.5   -862.53596 
  816500   0.10051659    7.6990781    1446927.2      1446935   -860.71178 
  817000   0.10037806    7.7004685    1445954.2      1445962   -860.41976 
  817500   0.10043487    7.6987606    1447868.6    1447876.4   -858.38694 
  818000   0.10041136    7.6977841    1447566.7    1447574.4   -859.10725 
  818500   0.10005949    7.6980171    1449780.9    1449788.7     -858.166 
  819000   0.10018756    7.6977666    1451480.9    1451488.7   -859.40602 
  819500   0.10009534    7.6976097    1451789.9    1451797.6    -858.1713 
  820000  0.099878086    7.6973861    1454763.3    1454771.1   -860.18766 
  820500   0.10023493    7.6980219    1455455.9    1455463.7   -861.56251 
  821000   0.10086602    7.6982428    1458164.5    1458172.2   -857.00475 
  821500   0.10072322    7.6982035    1458164.5    1458172.2   -861.19583 
  822000   0.10034499     7.697799      1459901    1459908.8   -859.54959 
  822500   0.10030106     7.698758    1460984.9    1460992.6   -860.84053 
  823000   0.10040255    7.6976537      1461536    1461543.8   -860.31888 
  823500   0.10020476    7.6983668    1461536.1    1461543.8   -858.95474 
  824000   0.10038332    7.6986015    1462527.6    1462535.4   -861.01882 
  824500   0.10068496    7.6968725    1462527.5    1462535.3   -861.68689 
  825000   0.10005482    7.6978551    1462497.1    1462504.9     -862.583 
  825500   0.10001578    7.6974143    1461993.4    1462001.2   -861.67145 
  826000   0.10018564    7.6955457      1465222    1465229.8   -858.72614 
  826500   0.10019365    7.6944066    1467053.2      1467061   -860.79872 
  827000   0.10051087    7.6964702    1467053.2      1467061   -861.52515 
  827500   0.10039007     7.697963    1469430.4    1469438.2   -859.61711 
  828000   0.10017062    7.6977769    1470401.7    1470409.5   -859.94568 
  828500    0.1003552    7.6965347    1470401.6    1470409.4   -859.72339 
  829000   0.10052758    7.6982973    1470764.8    1470772.6   -858.94662 
  829500  0.099684887    7.6983871    1470517.3    1470525.1   -861.15559 
  830000   0.10075713    7.6993246    1470659.3    1470667.1   -859.59691 
  830500  0.099975821    7.6995149    1472214.6    1472222.4   -857.88216 
  831000    0.1002501    7.6984075    1471691.2      1471699   -859.68528 
  831500   0.10046174    7.6979225    1471206.6    1471214.4   -861.02523 
  832000   0.10050666    7.6973202    1470671.8    1470679.6   -860.88019 
  832500   0.10060367    7.6977924    1470628.3    1470636.1   -861.71722 
  833000    0.1001807    7.6984921    1471400.4    1471408.1   -860.62726 
  833500   0.10048388    7.7004257    1471400.4    1471408.2   -862.46232 
  834000   0.10044936    7.7002057    1470744.8    1470752.5    -861.2646 
  834500     0.100037    7.7009613    1471638.7    1471646.5   -859.75135 
  835000   0.10035944    7.7024098    1470389.7    1470397.5   -859.15331 
  835500   0.10056024    7.7018266    1468766.5    1468774.3   -861.58738 
  836000   0.10020627    7.7016402    1468766.6    1468774.4   -859.48381 
  836500   0.10026869    7.7005195    1468476.3    1468484.1   -860.21562 
  837000   0.10016058    7.7019924    1468072.8    1468080.6   -860.57434 
  837500   0.10022535    7.7017292    1465905.8    1465913.6   -859.37215 
  838000   0.10039844    7.7007953    1466107.9    1466115.7   -859.65482 
  838500    0.1002572    7.7014798    1463253.5    1463261.3   -860.28917 
  839000   0.10058537    7.7013184    1462943.1    1462950.9    -857.9847 
  839500   0.10058314     7.702196    1462906.6    1462914.3   -860.97929 
  840000   0.10054082    7.6989523    1461938.3    1461946.1   -860.93899 
  840500    0.1002838    7.6995916    1461938.4    1461946.1   -859.89576 
  841000    0.1008761    7.6997502    1460959.2    1460966.9   -858.35666 
  841500   0.10012816     7.700674    1462247.1    1462254.9   -859.95801 
  842000   0.10092963    7.7015497      1465110    1465117.8   -862.03055 
  842500   0.10074179    7.7028061    1465703.1    1465710.9   -858.87499 
  843000   0.10042222    7.7015637    1466808.5    1466816.3    -861.6578 
  843500   0.10025238    7.7003515    1467526.8    1467534.6   -861.53671 
  844000  0.099843277    7.7003258    1470778.9    1470786.6   -861.63968 
  844500   0.10008804    7.7003512    1471710.6    1471718.3   -858.35724 
  845000   0.10042659     7.699976    1473120.6    1473128.4   -858.51256 
  845500   0.10066226    7.6999423    1473120.5    1473128.2   -860.96568 
  846000   0.10059344    7.6996725    1473387.6    1473395.4   -859.93587 
  846500   0.10078443    7.7001232    1473637.8    1473645.6   -859.69172 
  847000   0.10046932    7.7006246    1474673.4    1474681.1   -861.40633 
  847500    0.1006845    7.7014627    1474379.2      1474387   -861.94663 
  848000   0.10042093    7.7013993    1477565.3    1477573.1   -860.86353 
  848500    0.1000965    7.7029194    1477434.4    1477442.2   -862.46443 
  849000   0.10024803     7.703404    1477434.4    1477442.2   -861.44411 
  849500  0.099926416    7.7016068    1479699.3    1479707.1   -861.56865 
  850000   0.10044151    7.7022073    1478254.4    1478262.2    -858.1292 
  850500   0.10075192    7.7028133    1478254.4    1478262.2   -857.46545 
  851000   0.10017753    7.7023185    1481023.6    1481031.4   -859.92265 
  851500   0.10067454     7.701413    1481691.7    1481699.5   -858.92094 
  852000   0.10028527    7.7015598    1481875.4    1481883.2    -861.8459 
  852500   0.10050213    7.6995164    1481113.9    1481121.7   -859.26352 
  853000   0.10044255    7.6982168    1482828.7    1482836.4   -859.44104 
  853500   0.10028453    7.6989996    1482828.7    1482836.4   -862.29343 
  854000   0.10047266    7.7000689    1482906.3    1482914.1   -862.50902 
  854500   0.10032482    7.7001864      1485356    1485363.7   -860.99592 
  855000   0.10006517    7.7007782    1486698.3    1486706.1   -862.50344 
  855500   0.10024298    7.7008074    1487618.5    1487626.2   -861.20998 
  856000   0.10047333    7.7007928    1487618.4    1487626.2   -859.24409 
  856500    0.1002013    7.6989946    1488893.9    1488901.7   -860.92841 
  857000   0.10006916    7.6997985    1488908.8    1488916.6   -861.43352 
  857500   0.10030188     7.698271    1489548.8    1489556.5   -860.33112 
  858000   0.10023512     7.699057    1490101.4    1490109.2   -860.97558 
  858500   0.10046269    7.6994621    1490207.5    1490215.3   -858.72254 
  859000   0.10040839    7.6989776    1492462.7    1492470.5   -859.52951 
  859500   0.10009141    7.6972122    1494243.7    1494251.5   -860.35159 
  860000   0.10024321    7.6985069    1496099.5    1496107.3   -860.41455 
  860500    0.1002938     7.699153      1497020    1497027.8   -858.30526 
  861000  0.099805989    7.6982615    1497775.1    1497782.9   -858.71052 
  861500   0.10033178    7.6981996    1498905.5    1498913.3   -862.52401 
  862000  0.099982566    7.6994277    1498490.7    1498498.4   -863.61319 
  862500   0.10040643    7.6999812    1499001.4    1499009.1   -859.08903 
  863000   0.10001615    7.7012162    1498902.7    1498910.5    -860.3963 
  863500   0.10027895    7.7023375    1501594.5    1501602.3   -859.59952 
  864000   0.10024541    7.7020275    1501938.6    1501946.4   -860.12765 
  864500   0.10068822    7.7037618      1500002    1500009.8   -861.07123 
  865000   0.10018736    7.7019114      1499532    1499539.8    -861.0518 
  865500   0.10047741    7.7046282    1499982.6    1499990.4   -857.87662 
  866000   0.10041046    7.7037684    1500504.1    1500511.9   -861.62134 
  866500   0.10014269    7.7036539      1497807    1497814.8   -859.95922 
  867000   0.10014853    7.7034463    1495582.2    1495589.9   -857.99197 
  867500   0.10037939    7.7045592    1493450.3    1493458.1   -862.67006 
  868000   0.10002923    7.7052914    1493147.5    1493155.3   -862.52787 
  868500   0.10003743     7.703424    1492282.3    1492290.1   -858.99566 
  869000   0.10039122     7.705032    1492818.6    1492826.3   -861.00942 
  869500   0.10038565    7.7056246      1495025    1495032.7   -859.11619 
  870000   0.10040773    7.7058413    1495016.9    1495024.7   -861.34879 
  870500   0.10041193     7.707052    1494646.2      1494654   -859.30914 
  871000   0.10055305    7.7053521    1496677.3    1496685.1   -859.36444 
  871500   0.10042792    7.7062629    1496677.3    1496685.1    -862.0412 
  872000    0.1003643    7.7082313    1498498.6    1498506.4   -857.00802 
  872500   0.10037987    7.7081651    1499655.3    1499663.1   -858.10379 
  873000   0.10039183    7.7089612    1499655.2      1499663   -859.75069 
  873500  0.099798576    7.7080894      1501612    1501619.7   -861.86902 
  874000    0.1004386    7.7060577    1503011.2      1503019   -861.75189 
  874500   0.10065125     7.706271    1503011.3    1503019.1    -861.0417 
  875000   0.10038927    7.7082131    1506157.7    1506165.5    -861.5137 
  875500   0.10023207    7.7081254    1504941.7    1504949.5   -860.40022 
  876000   0.10045749    7.7083911    1505325.3      1505333   -863.85907 
  876500   0.10052546    7.7064728    1505229.9    1505237.7   -862.82963 
  877000   0.10055477    7.7062194    1504138.4    1504146.2   -859.74164 
  877500   0.10019007    7.7077815    1504138.5    1504146.3   -861.13841 
  878000   0.10091592    7.7084284    1505234.4    1505242.2   -862.11787 
  878500   0.10053835    7.7072281      1504287    1504294.8   -861.30174 
  879000   0.10015113    7.7066002      1506386    1506393.8   -860.96718 
  879500   0.10078571    7.7072205    1506455.3    1506463.1   -858.94318 
  880000   0.10028024    7.7081922    1507141.7    1507149.4   -860.53117 
  880500    0.1003984    7.7106951    1507141.9    1507149.7   -859.94709 
  881000   0.10002479    7.7110188      1505650    1505657.8   -862.02569 
  881500   0.10027595    7.7112424    1506422.9    1506430.7   -863.50242 
  882000   0.10032719    7.7113837    1507921.2      1507929   -861.34522 
  882500   0.10018963     7.711642    1507620.8    1507628.5   -859.91789 
  883000   0.10053075    7.7121459    1507534.9    1507542.7   -860.40729 
  883500   0.10045898    7.7123909    1507713.5    1507721.2   -859.69416 
  884000   0.10056101    7.7143889      1506617    1506624.7   -859.54858 
  884500   0.09992989    7.7145066    1505987.5    1505995.3   -861.56007 
  885000   0.10026196    7.7162249    1505987.6    1505995.4   -860.26635 
  885500   0.10078727    7.7163062      1502796    1502803.7   -858.19263 
  886000   0.10047884    7.7166979      1502796    1502803.8    -859.6055 
  886500  0.099931478     7.716698    1503099.6    1503107.4   -859.78961 
  887000   0.10081695    7.7162645    1502703.8    1502711.6    -860.7437 
  887500   0.10062064    7.7149948      1502031    1502038.8   -859.93832 
  888000   0.10033825     7.714834    1501212.2      1501220   -861.96066 
  888500   0.10044025    7.7168983    1500775.1    1500782.9   -860.71183 
  889000   0.10028757     7.716046    1500087.8    1500095.6   -860.83165 
  889500   0.10020923     7.716131      1499248    1499255.7   -859.63968 
  890000   0.10011981    7.7168256    1497537.2      1497545   -857.59811 
  890500   0.10036497    7.7179349    1499098.7    1499106.5   -857.25751 
  891000   0.10006852    7.7182583    1494647.5    1494655.3   -860.80996 
  891500   0.10051961    7.7180361    1494647.5    1494655.3   -859.40371 
  892000   0.10042279    7.7172285    1492073.8    1492081.6   -859.65432 
  892500   0.10028809    7.7163581    1488360.7    1488368.5   -859.36611 
  893000   0.10024091    7.7150461    1485908.1    1485915.8   -862.29371 
  893500   0.10061703    7.7155804    1484799.8    1484807.6   -862.22701 
  894000   0.10031537    7.7146407    1484700.3    1484708.1   -859.66589 
  894500   0.10019549    7.7130219    1483907.5    1483915.3     -859.699 
  895000   0.10073299    7.7130263    1482206.2    1482213.9   -860.30372 
  895500   0.10032687     7.712713    1479871.4    1479879.1   -860.63715 
  896000   0.10049621    7.7110648    1474112.5    1474120.3   -858.36527 
  896500   0.10028716    7.7105661    1474112.4    1474120.2   -862.11397 
  897000   0.10075202    7.7105471    1467336.1    1467343.9   -859.78361 
  897500  0.099956475    7.7109767    1464066.3    1464074.1   -860.02966 
  898000  0.099918058    7.7094766    1464066.3      1464074    -861.1818 
  898500   0.10068118     7.707809    1460630.4    1460638.2   -860.26758 
  899000   0.10001011    7.7082856    1458198.9    1458206.6   -860.65833 
  899500   0.10059107    7.7077628    1458305.8    1458313.5   -859.33301 
  900000   0.10038306    7.7042975    1456560.1    1456567.8    -859.9491 
  900500   0.10004077    7.7039283    1456560.1    1456567.9    -859.7618 
  901000   0.10045377    7.7056672    1454487.7    1454495.4   -860.53743 
  901500   0.10015512    7.7045481    1454273.8    1454281.6   -862.58766 
  902000   0.09992488    7.7044978    1454578.4    1454586.2   -861.28502 
  902500   0.10048985    7.7055445    1454352.5    1454360.3   -858.81654 
  903000   0.10033303     7.704917    1454087.6    1454095.4   -860.58727 
  903500   0.10019058    7.7050515    1454428.9    1454436.6   -859.22432 
  904000   0.10051531    7.7057019    1452468.2      1452476   -860.16775 
  904500   0.10032731    7.7032369    1453039.1    1453046.9   -857.64266 
  905000   0.10045954    7.7037029    1453039.1    1453046.9   -858.70822 
  905500   0.10030433    7.7040502    1452669.3      1452677   -860.37789 
  906000   0.10026851    7.7034566    1453635.1    1453642.9   -861.49444 
  906500   0.10030263    7.7046104    1453469.1    1453476.9   -861.36553 
  907000   0.10049532    7.7062724    1454068.7    1454076.5   -861.20325 
  907500   0.10042981    7.7064537    1454068.7    1454076.5    -858.2104 
  908000   0.10005222    7.7046667    1453988.7    1453996.4   -859.93528 
  908500   0.10026489    7.7050631      1454052    1454059.8   -859.58849 
  909000   0.10039084    7.7053356      1455513    1455520.8   -860.10971 
  909500   0.10037337    7.7066158    1456354.7    1456362.5   -861.09269 
  910000   0.10069005    7.7072455    1456354.7    1456362.5    -861.0138 
  910500    0.1003094    7.7073462    1457009.5    1457017.3   -861.70384 
  911000   0.10017718     7.707222    1460372.8    1460380.5   -861.51772 
  911500   0.10042348    7.7056736    1464505.7    1464513.4   -863.01395 
  912000   0.10005152     7.706875    1464505.8    1464513.6   -859.20255 
  912500    0.1005972    7.7065436    1467926.5    1467934.3   -860.16125 
  913000   0.10004615    7.7074963    1470182.3      1470190   -860.13316 
  913500   0.10074475    7.7088632    1473541.1    1473548.9   -860.62753 
  914000  0.099857217    7.7096108      1473541    1473548.7   -860.38215 
  914500   0.10058592     7.708734    1476428.7    1476436.4   -859.24931 
  915000   0.10033472    7.7098198    1476428.5    1476436.2    -860.6818 
  915500    0.1004189    7.7090415      1478422    1478429.8   -861.03931 
  916000    0.1002095    7.7086427    1479392.8    1479400.6   -859.86792 
  916500    0.1003119    7.7081221    1481156.3      1481164   -859.61937 
  917000   0.10047754    7.7082606    1480797.9    1480805.7   -861.47949 
  917500   0.10042548    7.7086753    1480798.1    1480805.8   -860.52952 
  918000   0.10059845    7.7095056    1481569.5    1481577.2   -860.59124 
  918500   0.10053892    7.7074135    1482532.5    1482540.3   -859.71119 
  919000   0.10005931    7.7067811    1484536.1    1484543.9   -859.14094 
  919500   0.10041778     7.707403    1485371.7    1485379.5   -859.30265 
  920000   0.10094075     7.706264    1485371.8    1485379.5   -861.86689 
  920500   0.10064398    7.7064116    1486925.1    1486932.9   -860.53399 
  921000   0.10026742      7.70582    1485335.9    1485343.7   -859.00778 
  921500   0.10061213    7.7055568    1483413.6    1483421.4   -860.01376 
  922000   0.10022146    7.7069738    1483380.3    1483388.1   -860.21836 
  922500  0.099817131    7.7056768    1483633.4    1483641.1   -861.40859 
  923000   0.10018645    7.7063169    1483633.2      1483641   -862.36641 
  923500   0.10044477    7.7064381    1482918.5    1482926.2   -859.72744 
  924000    0.1002209    7.7052171    1481217.2      1481225   -860.56342 
  924500   0.10021539    7.7043741    1480173.9    1480181.7   -858.38615 
  925000   0.09993146    7.7049376      1480174    1480181.8   -860.82639 
  925500   0.10020279    7.7054512    1481299.1    1481306.9   -860.48449 
  926000   0.10041778    7.7050101    1479997.7    1480005.5   -860.19368 
  926500   0.10038783    7.7043961      1479493    1479500.7   -860.00615 
  927000    0.1001684    7.7043629      1479493    1479500.7   -860.71805 
  927500   0.10026316    7.7052545    1479956.2      1479964   -860.66649 
  928000   0.10077227    7.7028672    1477759.5    1477767.2    -863.3763 
  928500   0.10064289    7.7040691    1476130.2      1476138   -859.54673 
  929000  0.099990405    7.7032552    1477683.9    1477691.6   -861.71076 
  929500   0.10055702    7.7017469    1476575.2    1476582.9   -862.13726 
  930000   0.10048919    7.7030072    1476807.8    1476815.5   -859.66797 
  930500   0.10030174    7.7002738    1473299.8    1473307.5   -860.78465 
  931000   0.10050539    7.6989058    1472650.1    1472657.9   -861.74997 
  931500   0.10063378    7.6990627    1470664.1    1470671.9   -861.41711 
  932000   0.10007708    7.7012424    1470664.1    1470671.9   -862.86186 
  932500   0.10091368     7.700093    1472322.5    1472330.2   -860.58281 
  933000   0.10081152    7.6994697    1472322.3    1472330.1   -859.90082 
  933500   0.10030872    7.6989861    1473725.5    1473733.3   -861.72057 
  934000   0.10011234    7.6985205    1474872.3      1474880   -860.31794 
  934500   0.10031288    7.6988506    1475694.8    1475702.6   -860.86173 
  935000     0.100734    7.6992242    1476829.7    1476837.4   -860.58941 
  935500   0.10042432    7.7002853    1478559.6    1478567.4   -857.47829 
  936000    0.1003411    7.7002657    1478559.5    1478567.3   -860.67376 
  936500   0.10021842    7.6992631    1482560.6    1482568.3      -861.42 
  937000   0.10040484     7.698306    1484690.1    1484697.8   -860.23717 
  937500   0.10032177    7.6983968    1484689.9    1484697.7   -862.03874 
  938000   0.10053129    7.6976843    1481383.9    1481391.7   -858.92619 
  938500   0.10079459    7.6974327    1481609.4    1481617.2   -857.66778 
  939000   0.10020706    7.6988179    1480740.1    1480747.8   -860.43798 
  939500   0.10010048    7.6977922    1479640.1    1479647.9   -858.74025 
  940000   0.10026326    7.6966533    1479357.9    1479365.7   -859.16949 
  940500   0.10041342    7.6960179    1479660.7    1479668.5   -862.53494 
  941000   0.10043921    7.6974314    1477087.7    1477095.4   -857.46682 
  941500   0.10037327    7.6953997    1476764.1    1476771.8   -859.93535 
  942000   0.10009744     7.696063    1473948.3      1473956   -861.41753 
  942500   0.10021351    7.6969397    1472652.9    1472660.7   -861.25562 
  943000   0.10032526    7.6960968    1471037.5    1471045.3   -858.82275 
  943500   0.10093668    7.6973843    1470432.5    1470440.2   -861.83082 
  944000   0.10051988    7.6977667    1469358.3    1469366.1   -859.89187 
  944500   0.10021443     7.696739    1468601.3    1468609.1   -861.15099 
  945000   0.10044603    7.6971945    1467539.9    1467547.7   -861.86143 
  945500    0.1001248    7.6967975    1465596.8    1465604.6    -861.2012 
  946000     0.100381    7.6974705    1466571.1    1466578.9   -860.58452 
  946500   0.10039329    7.6966177    1464430.9    1464438.7   -858.63143 
  947000   0.10020471     7.696976    1462018.6    1462026.4   -862.54185 
  947500   0.10104925    7.6972761      1461086    1461093.8   -861.00213 
  948000   0.10057477    7.6981068    1461474.9    1461482.6   -860.84445 
  948500   0.10037735    7.6972487    1461465.6    1461473.4   -860.35498 
  949000   0.10007464    7.6970843    1462001.8    1462009.5   -859.02925 
  949500   0.10046728    7.6963718    1462001.6    1462009.4   -859.66687 
  950000   0.10066919    7.6954685      1460694    1460701.8    -861.9106 
  950500   0.10030976    7.6953161    1460900.2      1460908   -857.80479 
  951000    0.1007711     7.693374    1459603.2      1459611   -860.78013 
  951500   0.10063422    7.6931405    1458171.9    1458179.7   -861.03901 
  952000   0.10082738    7.6944864    1458419.9    1458427.7   -859.05173 
  952500   0.10045424    7.6933026    1457405.8    1457413.5   -859.81486 
  953000    0.1005161    7.6926164    1458235.2    1458242.9   -860.16863 
  953500   0.10022422    7.6929588    1460955.5    1460963.3   -858.92996 
  954000   0.10066815     7.692428    1461571.1    1461578.9    -858.9733 
  954500   0.10043968    7.6928191    1461571.3    1461579.1    -859.7262 
  955000   0.10069583    7.6938545    1462554.6    1462562.3   -861.19734 
  955500   0.10050115    7.6949741    1461042.4    1461050.1   -860.72542 
  956000   0.10054111    7.6974958    1459951.9    1459959.6   -860.03045 
  956500   0.10015548    7.6969788    1461294.3    1461302.1   -861.98188 
  957000   0.10063341    7.6970759    1458657.7    1458665.5    -860.3527 
  957500   0.10057288    7.6977538    1458657.8    1458665.5   -861.42615 
  958000   0.10040653    7.6969102    1457581.6    1457589.4   -858.88505 
  958500   0.10033242    7.6982765    1456087.3    1456095.1   -860.95373 
  959000   0.10010222    7.6975748    1456416.6    1456424.4   -860.06037 
  959500   0.10015129    7.7000682    1456416.6    1456424.4   -860.27831 
  960000   0.10021344     7.701518    1455750.6    1455758.3   -860.55933 
  960500   0.10057084    7.7001273    1454631.3    1454639.1   -860.05284 
  961000   0.10027806    7.7011963    1453300.4    1453308.2   -859.95692 
  961500   0.10003415    7.7016262    1453004.9    1453012.7   -857.81902 
  962000    0.1003768    7.7032216    1453004.8    1453012.6    -859.4452 
  962500   0.10026739    7.7038044      1452937    1452944.8   -859.47347 
  963000   0.10030211    7.7014657    1453420.3    1453428.1   -861.87224 
  963500   0.10047321    7.7019113    1453629.9    1453637.7    -860.0166 
  964000  0.099956824    7.7007257      1453630    1453637.7    -862.9054 
  964500   0.10036848    7.7009148    1453793.8    1453801.6   -860.09292 
  965000   0.10057291    7.7014001    1453302.2      1453310   -859.64143 
  965500   0.10068019    7.7012482    1453302.3    1453310.1    -863.7881 
  966000   0.10019189    7.7016076    1455799.4    1455807.2   -860.57926 
  966500   0.10048923     7.700456      1456168    1456175.8   -859.84395 
  967000   0.10032733    7.7024088    1457707.3    1457715.1   -860.20023 
  967500   0.10063037    7.7032551    1458897.6    1458905.4   -864.59096 
  968000   0.10068753     7.704384    1461695.1    1461702.9   -860.39384 
  968500   0.10056685    7.7039878    1465715.1    1465722.8   -859.86946 
  969000   0.10001105    7.7046938    1466609.7    1466617.5   -860.69896 
  969500   0.10043622     7.705678    1470711.7    1470719.5   -860.08041 
  970000   0.10041285    7.7059422    1473718.9    1473726.7   -858.73238 
  970500   0.10044871     7.706553    1473719.1    1473726.8     -859.471 
  971000   0.10030998    7.7055781    1476129.4    1476137.2   -860.12698 
  971500    0.1003096    7.7056337    1476956.1    1476963.9   -859.33105 
  972000   0.10108977    7.7046727      1477410    1477417.8   -862.70518 
  972500   0.10089939     7.705946    1477939.8    1477947.6   -859.33109 
  973000   0.10066318    7.7062837      1477940    1477947.8   -861.18372 
  973500   0.10062558    7.7061201    1478020.4    1478028.2   -861.24058 
  974000   0.10057629    7.7046025    1478477.4    1478485.2   -860.23392 
  974500   0.10063387    7.7050734    1479115.5    1479123.2    -861.5685 
  975000   0.10090857    7.7050597    1478660.1    1478667.8   -857.13757 
  975500   0.10071114     7.706226    1478957.7    1478965.4   -860.36477 
  976000   0.10041765    7.7072562    1479452.6    1479460.4   -860.23125 
  976500   0.10054792    7.7063153    1479136.4    1479144.2   -857.03231 
  977000   0.10075174    7.7070145    1480610.1    1480617.9   -862.39021 
  977500   0.10058349     7.706032    1479801.7    1479809.5   -859.66952 
  978000   0.10070852    7.7040523    1480897.8    1480905.5   -857.66945 
  978500   0.10080308    7.7018685    1480816.6    1480824.4   -860.17053 
  979000    0.1004757    7.7025456    1480816.5    1480824.3   -858.50387 
  979500    0.1002561    7.7005686    1480381.9    1480389.7   -860.07803 
  980000   0.10096095    7.7001327    1477468.5    1477476.3   -859.84676 
  980500   0.10084742     7.700244    1473973.2      1473981    -860.1998 
  981000   0.10072532    7.7002128    1471663.7    1471671.4   -858.72935 
  981500   0.10055952    7.7000315    1469537.4    1469545.2   -860.93858 
  982000   0.10085545    7.6991337    1469537.5    1469545.3   -860.61233 
  982500   0.10042608    7.6987833    1466216.2      1466224   -861.00161 
  983000   0.10067071    7.6974137    1463906.9    1463914.7   -860.07924 
  983500   0.10051874     7.698157    1460818.2      1460826   -859.11703 
  984000   0.10060431    7.6965914      1455205    1455212.8   -860.27796 
  984500   0.10049564    7.6959795    1455205.1    1455212.8    -858.9925 
  985000   0.10101582    7.6946848      1454590    1454597.7   -860.73961 
  985500   0.10046823    7.6938464    1452765.7    1452773.5   -858.62064 
  986000   0.10052637    7.6955845    1449528.8    1449536.5   -861.47053 
  986500   0.10067006    7.6952809    1449528.7    1449536.5   -860.99746 
  987000   0.10050064     7.694211    1447396.8    1447404.6   -858.57588 
  987500   0.10044385    7.6946379    1445956.3    1445964.1   -862.13327 
  988000   0.10011952    7.6950237    1445956.3      1445964   -860.75523 
  988500   0.10038916    7.6941917    1444038.3    1444046.1   -858.23361 
  989000   0.10040498    7.6920344      1440797    1440804.8   -859.69047 
  989500   0.10097771    7.6926078    1440797.1    1440804.8   -862.22575 
  990000   0.10026354    7.6956238    1439238.2      1439246    -860.0458 
  990500   0.10100381     7.695001      1438487    1438494.8   -859.35347 
  991000   0.10063754    7.6924832    1437878.5    1437886.3   -860.98951 
  991500    0.1003339    7.6930334    1437639.6    1437647.4   -859.59906 
  992000  0.099998279     7.692059    1437550.2      1437558   -861.80034 
  992500   0.10032601    7.6911997    1434946.7    1434954.5   -859.94554 
  993000   0.10063126    7.6902596    1432352.6    1432360.3   -859.34518 
  993500   0.10032562    7.6895424    1431940.2    1431947.9   -858.21537 
  994000   0.10018629    7.6901206    1431152.6    1431160.3   -860.80785 
  994500   0.10063595    7.6897147    1431152.6    1431160.4   -860.22627 
  995000   0.10051286    7.6903037      1431430    1431437.8   -859.88668 
  995500   0.10022829     7.690258    1430818.4    1430826.2   -860.55446 
  996000   0.10023309    7.6882297    1431665.3    1431673.1    -862.3803 
  996500   0.10078914    7.6871892    1431665.4    1431673.1   -861.81725 
  997000   0.10027584    7.6876404    1432333.6    1432341.4   -860.44364 
  997500   0.10027227    7.6875411    1431349.4    1431357.1   -858.70927 
  998000    0.1003293    7.6883095    1430025.6    1430033.4   -860.17002 
  998500   0.10023595    7.6876128    1427455.3    1427463.1   -860.94038 
  999000   0.10036951    7.6866491    1428952.9    1428960.7   -858.25712 
  999500   0.10019402    7.6878754    1428808.6    1428816.3   -860.06504 
 1000000   0.10038505    7.6868785    1430286.9    1430294.6   -858.70714 
 1000500    0.1005952    7.6864544    1430286.9    1430294.6   -859.93053 
 1001000   0.10001948    7.6857655    1433401.4    1433409.2   -860.62961 
 1001500   0.10059298    7.6854855    1435792.2      1435800   -858.91206 
 1002000   0.10074805    7.6874366    1438565.2    1438572.9   -858.20496 
 1002500   0.10043812    7.6875005    1439743.9    1439751.6   -860.75617 
 1003000   0.10067349    7.6862424    1439933.3    1439941.1   -860.02573 
 1003500   0.10039774    7.6864357    1439933.2      1439941   -860.68674 
 1004000   0.10048899    7.6858991    1440409.4    1440417.1    -861.4933 
 1004500   0.10027014    7.6858538    1441715.2      1441723    -861.7322 
 1005000   0.10016533    7.6861529    1442267.9    1442275.7   -858.52884 
 1005500   0.10059784    7.6884232    1443763.8    1443771.6   -861.75448 
 1006000   0.10038138    7.6859818    1444336.2    1444343.9   -861.25121 
 1006500   0.10028752    7.6874027    1446412.4    1446420.1   -863.74378 
 1007000    0.1002888    7.6876744    1446667.7    1446675.5   -859.38194 
 1007500   0.10014898    7.6881426    1447634.2      1447642    -861.0177 
 1008000   0.10008175    7.6883218    1449862.5    1449870.3   -861.50183 
 1008500   0.10049286     7.688509    1450647.2      1450655   -860.31722 
 1009000   0.10040973    7.6875656    1450087.4    1450095.2   -860.66273 
 1009500   0.10078413    7.6858563    1448977.3      1448985   -861.81973 
 1010000   0.10044499      7.68665    1450497.8    1450505.5   -857.93552 
 1010500   0.10046257    7.6882694    1451145.7    1451153.4   -859.74944 
 1011000   0.10032328      7.68788    1450221.1    1450228.8   -861.52123 
 1011500   0.10061842    7.6871574    1450221.1    1450228.8   -860.70444 
 1012000   0.10015713    7.6885296    1451667.2      1451675   -860.23348 
 1012500   0.10052399    7.6870324    1451887.7    1451895.4   -862.56845 
 1013000   0.10084546    7.6859215    1452026.7    1452034.5   -858.73049 
 1013500   0.10040608    7.6855817    1452026.8    1452034.5   -860.97791 
 1014000   0.10043253    7.6868571    1449424.7    1449432.5   -859.71578 
 1014500   0.10027026    7.6871544    1449628.3    1449636.1   -861.34982 
 1015000   0.10037727    7.6890336    1448869.8    1448877.6   -861.61453 
 1015500   0.10053252    7.6872835    1448989.2      1448997   -859.81754 
 1016000   0.10054391    7.6874201      1448363    1448370.8   -861.19245 
 1016500   0.10042587    7.6889536      1449000    1449007.7   -858.47817 
 1017000   0.10056945    7.6887229      1447758    1447765.7     -861.273 
 1017500   0.10033637    7.6901691      1446294    1446301.8   -860.77434 
 1018000   0.10049613    7.6907741      1445537    1445544.7   -860.96842 
 1018500   0.10047833    7.6924341      1445537    1445544.7   -860.55665 
 1019000   0.10010714    7.6924188    1445348.9    1445356.7   -860.19248 
 1019500   0.10049752    7.6943884    1445559.8    1445567.6   -859.23603 
 1020000    0.1004693    7.6952248    1444627.5    1444635.2   -861.50427 
 1020500    0.1005263    7.6953522    1446384.8    1446392.6   -860.14863 
 1021000   0.10028735    7.6959956    1447205.4    1447213.2   -860.26062 
 1021500   0.10063232    7.6976573    1447358.7    1447366.5   -863.04282 
 1022000  0.099963162    7.7000041    1446963.3      1446971   -861.87583 
 1022500   0.10044692    7.7008244    1446963.4    1446971.1   -860.40538 
 1023000   0.10016252    7.7039767    1447158.3      1447166   -861.69698 
 1023500   0.10005435    7.7047232    1448386.8    1448394.6   -860.88923 
 1024000  0.099989736    7.7056067    1447830.1    1447837.9   -857.10598 
 1024500  0.099921553    7.7069498    1447830.1    1447837.9   -858.74458 
 1025000   0.10033545    7.7077274    1444623.5    1444631.3   -860.71731 
 1025500   0.10051441    7.7090959    1443906.5    1443914.3    -860.6307 
 1026000   0.10062723    7.7099165    1442819.9    1442827.7   -860.87696 
 1026500   0.10028178     7.710617      1442510    1442517.7   -862.37947 
 1027000   0.10094595    7.7106164    1441396.7    1441404.5   -859.12314 
 1027500   0.10069759    7.7111881    1439068.4    1439076.1   -860.86936 
 1028000   0.10038354    7.7131975    1436651.1    1436658.8    -858.8799 
 1028500   0.10047305    7.7125695    1434717.3    1434725.1   -859.49175 
 1029000   0.10067487    7.7125834    1432757.9    1432765.7   -861.15624 
 1029500       0.1002    7.7126955      1432758    1432765.8   -860.67072 
 1030000   0.10032797    7.7131692    1431802.3    1431810.1     -860.036 
 1030500   0.10031296    7.7131925    1427618.2    1427625.9   -857.90387 
 1031000   0.10033875    7.7138882    1427618.3    1427626.1   -860.06638 
 1031500   0.10031507    7.7136727    1426245.6    1426253.4   -859.93608 
 1032000   0.10049239    7.7139234    1426173.8    1426181.6   -859.13268 
 1032500   0.10069572    7.7141583    1424347.8    1424355.6   -859.85457 
 1033000   0.10017175    7.7143562    1425342.1    1425349.9   -861.19693 
 1033500   0.10115087    7.7149405    1425488.6    1425496.4   -861.74595 
 1034000   0.10060965    7.7161668    1424781.9    1424789.6   -858.22378 
 1034500   0.10067459    7.7154843    1425054.4    1425062.2   -861.04475 
 1035000   0.10048076     7.714279    1424870.8    1424878.5   -862.41626 
 1035500  0.099962808    7.7147502    1426219.1    1426226.9    -859.5031 
 1036000   0.10029967      7.71462    1425447.8    1425455.6   -858.83473 
 1036500   0.10034399    7.7156336    1425378.5    1425386.3   -860.03947 
 1037000    0.1006042    7.7156606    1425378.4    1425386.2   -860.02226 
 1037500   0.10017354    7.7165651    1425721.5    1425729.2   -857.71972 
 1038000   0.10029438    7.7155288    1425555.8    1425563.6   -860.36783 
 1038500   0.10029745    7.7162104    1425351.9    1425359.6   -861.16903 
 1039000   0.10027736    7.7167074    1426495.9    1426503.7   -859.69763 
 1039500   0.10023102    7.7168437    1425897.5    1425905.3   -860.73786 
 1040000   0.10043423    7.7165559    1426254.4    1426262.2   -860.15253 
 1040500   0.10061065    7.7169344    1422801.1    1422808.9    -863.1818 
 1041000   0.10037249    7.7179591    1421960.7    1421968.5   -861.22509 
 1041500   0.10036356    7.7186641      1422461    1422468.8   -860.57821 
 1042000   0.10050304    7.7184546      1422461    1422468.7   -858.20033 
 1042500   0.10011238    7.7192209    1423050.8    1423058.6   -861.62585 
 1043000   0.10013478    7.7210086    1420607.5    1420615.3   -859.62851 
 1043500   0.10045806    7.7202925    1422632.3    1422640.1   -859.93096 
 1044000   0.10034173    7.7216453    1421869.2      1421877   -858.42447 
 1044500    0.1006858     7.720284    1421869.1    1421876.9   -861.46153 
 1045000   0.10036526    7.7196738    1421897.7    1421905.5   -860.77478 
 1045500   0.10027733    7.7181842    1420376.1    1420383.8   -858.88037 
 1046000   0.10012338    7.7177974    1422434.2      1422442   -860.57163 
 1046500   0.10038404    7.7182274      1424557    1424564.8   -860.31551 
 1047000   0.10067018    7.7183592    1425403.6    1425411.4   -859.51115 
 1047500   0.10031347    7.7196267    1425589.2      1425597   -861.27002 
 1048000   0.10038391    7.7190182    1426870.7    1426878.5   -860.59315 
 1048500    0.1003295    7.7184112    1429046.8    1429054.6   -858.89017 
 1049000   0.10003223    7.7178815    1432889.4    1432897.2   -859.75975 
 1049500   0.10066689    7.7158102    1432889.5    1432897.2    -860.3974 
 1050000   0.10010865    7.7170733    1440142.2      1440150   -860.59177 
 1050500   0.10027457    7.7157537    1440142.2    1440149.9   -859.97701 
 1051000   0.10028528    7.7162205    1442603.8    1442611.6   -861.46175 
 1051500   0.10002446    7.7160506    1448841.2    1448848.9   -861.49479 
 1052000   0.10034483    7.7156048    1448841.2      1448849   -858.65587 
 1052500   0.10022792    7.7162951    1451181.9    1451189.6   -858.58052 
 1053000   0.10005205     7.714654    1455251.1    1455258.9   -858.65124 
 1053500    0.1004922    7.7145002    1458533.7    1458541.5   -863.61736 
 1054000   0.10019567     7.715287    1460875.6    1460883.4   -860.83695 
 1054500   0.10030695     7.713755    1464174.9    1464182.7   -861.62172 
 1055000   0.10030423    7.7127486      1464175    1464182.8   -861.53101 
 1055500   0.10054804    7.7121677    1464717.1    1464724.8    -860.5625 
 1056000   0.10042857    7.7122559    1468312.6    1468320.4   -859.66341 
 1056500  0.099958363    7.7114875      1468216    1468223.8   -859.42545 
 1057000   0.10064278    7.7116207    1468857.2      1468865   -862.05798 
 1057500   0.10032671    7.7089661    1468857.2      1468865   -861.56623 
 1058000    0.1002856    7.7098412    1468753.1    1468760.9   -860.16425 
 1058500   0.10027045    7.7096963    1468822.8    1468830.6   -862.45035 
 1059000   0.10020065    7.7097939    1468959.8    1468967.6   -862.09121 
 1059500   0.10054066    7.7083883      1469220    1469227.8   -862.62088 
 1060000   0.10016298    7.7093158    1470288.1    1470295.9   -861.45251 
 1060500   0.10061007    7.7080847    1471315.8    1471323.6   -861.57957 
 1061000   0.10062523    7.7070196    1473449.6    1473457.4   -859.32763 
 1061500   0.10037585    7.7064685    1475701.6    1475709.4   -859.65835 
 1062000   0.10034721    7.7058593    1476689.2    1476696.9   -859.90658 
 1062500   0.10011376    7.7069951    1477575.5    1477583.3   -856.78144 
 1063000   0.10041468    7.7046345    1477575.5    1477583.3   -860.23281 
 1063500   0.10044532    7.7060721    1477537.8    1477545.6   -861.59028 
 1064000  0.099997589    7.7046809    1475183.3    1475191.1   -860.75717 
 1064500   0.10080168     7.703407    1473100.5    1473108.2   -860.23102 
 1065000   0.10019155    7.7024177    1473155.9    1473163.7   -859.99398 
 1065500   0.10059458    7.7009039      1473156    1473163.8    -862.4238 
 1066000   0.10011052    7.7007625    1470422.5    1470430.3   -858.87328 
 1066500   0.10021661    7.6995729    1469482.2      1469490    -861.3449 
 1067000   0.10044401    7.6986777    1468989.4    1468997.2   -861.34883 
 1067500   0.10091258    7.6978338    1466502.5    1466510.3   -861.00638 
 1068000   0.10028289    7.6979926    1466227.4    1466235.2   -861.62145 
 1068500    0.1003275    7.6971504    1464151.7    1464159.4   -861.15797 
 1069000   0.10089203    7.6979134    1462465.5    1462473.2   -861.85098 
 1069500   0.10045315      7.69746    1458414.3      1458422   -862.56262 
 1070000   0.10033151     7.696111    1458233.7    1458241.5   -858.25294 
 1070500   0.10033155     7.697625    1456272.3      1456280   -858.21885 
 1071000   0.10063806    7.6965309    1454747.5    1454755.3   -858.53799 
 1071500   0.10081283    7.6980012    1454083.3    1454091.1   -861.67752 
 1072000   0.10064399    7.6984419    1450621.5    1450629.3   -858.68231 
 1072500   0.10055253    7.6968724    1449518.2      1449526    -861.4726 
 1073000   0.10035639    7.6966577    1446510.6    1446518.4   -858.99048 
 1073500   0.10061573     7.695784    1445728.4    1445736.2    -859.6068 
 1074000   0.10047833    7.6967935    1444842.2      1444850   -858.07981 
 1074500   0.10022265    7.6960057    1444363.6    1444371.4      -860.85 
 1075000   0.10054102     7.694724    1442722.1    1442729.8   -860.82173 
 1075500   0.10063336     7.695592    1441988.6    1441996.3   -860.77802 
 1076000   0.10083092    7.6963273    1441988.7    1441996.4   -859.31557 
 1076500   0.10056705    7.6965281    1441649.6    1441657.4   -860.17491 
 1077000   0.10067936    7.6949166    1441193.7    1441201.5   -860.23361 
 1077500   0.10076667    7.6944309    1441193.8    1441201.6   -860.43297 
 1078000   0.10080905    7.6958024    1439885.6    1439893.3   -859.88028 
 1078500   0.10051492    7.6947883    1439885.5    1439893.3   -859.65125 
 1079000   0.10054514    7.6951869    1439206.6    1439214.4   -860.77896 
 1079500    0.1005611    7.6939593    1438214.6    1438222.4   -859.41079 
 1080000   0.10113931    7.6942376    1439498.5    1439506.2   -860.98889 
 1080500   0.10086126    7.6917412    1437287.2      1437295   -860.98584 
 1081000   0.10066506    7.6920292    1436686.4    1436694.1   -859.55947 
 1081500   0.10029212     7.691697    1436686.3    1436694.1   -859.75927 
 1082000   0.10129169    7.6915279      1437019    1437026.8   -859.58094 
 1082500   0.10059021    7.6910368    1435265.4    1435273.2   -860.78176 
 1083000   0.10100999    7.6924545    1434749.6    1434757.3   -861.35762 
 1083500   0.10047155    7.6915967    1433664.1    1433671.8   -861.27414 
 1084000   0.10014246     7.691881    1433949.6    1433957.4   -860.59949 
 1084500   0.10085934     7.690244    1433949.5    1433957.3   -862.25233 
 1085000   0.10079751    7.6898603    1431605.7    1431613.4   -861.10856 
 1085500   0.10038858    7.6893184    1430724.2    1430731.9   -859.67925 
 1086000   0.10030904    7.6900041    1427624.5    1427632.3   -861.56287 
 1086500   0.10055057    7.6908604    1426351.4    1426359.2   -859.68617 
 1087000   0.10039675     7.690824    1427105.1    1427112.8   -859.57769 
 1087500  0.099830845    7.6893388    1427479.7    1427487.5   -860.33214 
 1088000   0.10033434     7.689811    1428286.7    1428294.5   -860.74762 
 1088500   0.10068828    7.6904003    1428286.6    1428294.4   -859.56197 
 1089000   0.10007284    7.6891388    1428424.6    1428432.4    -860.2689 
 1089500   0.10033558    7.6912902    1429324.7    1429332.5   -859.98676 
 1090000   0.10001281    7.6920272    1430277.5    1430285.3   -859.29248 
 1090500   0.10060768    7.6934246    1432144.6    1432152.4   -860.00819 
 1091000   0.10032527    7.6922536    1434965.9    1434973.7   -859.70794 
 1091500   0.10055465    7.6926511    1435779.8    1435787.6   -857.83814 
 1092000   0.10011116    7.6922844    1435779.8    1435787.6    -861.5992 
 1092500   0.10048983    7.6939648    1438867.5    1438875.3   -859.22545 
 1093000   0.10052742    7.6949211    1439770.3    1439778.1   -860.79107 
 1093500   0.10028589    7.6947852    1441316.8    1441324.6   -860.90791 
 1094000   0.10026175    7.6939462    1444519.3    1444527.1   -860.83273 
 1094500    0.1001692    7.6949737    1446624.9    1446632.6   -859.28544 
 1095000   0.10020041    7.6958352    1448781.5    1448789.2   -861.47964 
 1095500    0.1003631    7.6968508    1448781.4    1448789.2   -856.80347 
 1096000   0.10004291    7.6971135    1451024.4    1451032.2   -858.96328 
 1096500   0.10018513    7.6985794    1454099.3      1454107   -858.44151 
 1097000   0.10075613    7.6992463    1455893.6    1455901.3   -860.11453 
 1097500   0.10039887    7.7010888    1455411.9    1455419.7   -862.46013 
 1098000   0.10004248    7.7008956    1458023.5    1458031.2   -859.36841 
 1098500   0.10034577    7.7017606    1458023.4    1458031.1    -862.7614 
 1099000   0.10046823    7.7021442    1460266.1    1460273.9    -860.9464 
 1099500  0.099958218    7.7015854    1460216.4    1460224.2    -861.2449 
 1100000   0.10023821    7.7032708    1463822.1    1463829.9   -860.36984 
 1100500   0.10022482    7.7032177    1463822.1    1463829.8   -861.18624 
 1101000   0.10029556    7.7037242    1467291.9    1467299.6   -859.68284 
 1101500   0.10040517    7.7017079    1469486.3    1469494.1   -862.73662 
 1102000   0.10018931    7.7020261    1475174.3      1475182   -861.46482 
 1102500   0.10036301     7.702269    1475220.3    1475228.1   -861.08633 
 1103000   0.10013302    7.7009729    1481084.2    1481091.9    -861.0223 
 1103500    0.1007822    7.7034142    1485026.4    1485034.2   -859.19655 
 1104000   0.10021361    7.7048843    1485026.5    1485034.3    -860.6811 
 1104500   0.10011036    7.7059452    1488766.8    1488774.6   -860.56232 
 1105000   0.10057967    7.7044557    1488048.8    1488056.6   -860.36352 
 1105500   0.10024806    7.7056769    1488577.7    1488585.5   -860.41895 
 1106000   0.10048603    7.7063743    1484537.3    1484545.1   -858.71864 
 1106500   0.10065415    7.7079554    1484537.3      1484545   -862.86668 
 1107000   0.10017537    7.7075116    1482631.1    1482638.8    -859.7904 
 1107500    0.1005214    7.7081146    1481981.9    1481989.6   -861.83884 
 1108000   0.10021815    7.7080774    1482450.3    1482458.1   -859.35332 
 1108500   0.10083868    7.7096951    1481670.8    1481678.6   -859.79371 
 1109000    0.1002344    7.7101731    1482204.2      1482212   -862.15575 
 1109500   0.10029197    7.7097414    1480026.4    1480034.2   -860.10776 
 1110000    0.1007262    7.7111099    1480668.7    1480676.4   -859.73834 
 1110500   0.10056795    7.7110565    1479421.9    1479429.7   -860.31235 
 1111000   0.10036713    7.7106113    1480471.9    1480479.7   -858.48757 
 1111500   0.10020746    7.7107707    1480101.9    1480109.7   -859.57993 
 1112000     0.100434    7.7122224    1480432.9    1480440.7   -860.56421 
 1112500   0.10041326    7.7117328      1479064    1479071.7   -858.45445 
 1113000   0.10039228    7.7116208    1480401.7    1480409.5   -860.27451 
 1113500   0.10056653    7.7122738    1480216.5    1480224.3    -860.4737 
 1114000   0.10024603    7.7132874      1480078    1480085.8   -860.78785 
 1114500   0.10082952    7.7135034    1481057.5    1481065.2   -859.76805 
 1115000   0.10053191    7.7124105    1481769.1    1481776.9   -861.93371 
 1115500   0.10056728    7.7133354    1480607.7    1480615.5   -860.02394 
 1116000   0.10040729    7.7128992    1482342.1    1482349.9   -859.37579 
 1116500   0.10020489    7.7147598      1480745    1480752.8     -859.836 
 1117000   0.10028414    7.7133817    1480744.9    1480752.7   -860.21053 
 1117500   0.10033122    7.7124786    1480602.1    1480609.9   -860.14454 
 1118000    0.1002449    7.7118191    1481128.8    1481136.6   -861.01754 
 1118500   0.10071647    7.7120621      1481423    1481430.8   -856.68098 
 1119000   0.10050944    7.7133258    1478237.6    1478245.4   -858.98797 
 1119500   0.10067492    7.7143208    1476812.2    1476819.9    -863.4317 
 1120000   0.10074136    7.7148345    1475838.7    1475846.5   -860.19965 
 1120500   0.10023329    7.7159992    1475004.9    1475012.7   -861.74883 
 1121000   0.10022214    7.7158299    1476554.8    1476562.6   -862.30261 
 1121500   0.10048347    7.7153345      1477441    1477448.8   -857.69962 
 1122000   0.10026948    7.7147755    1476540.1    1476547.9   -861.60301 
 1122500    0.1006523    7.7143934    1477177.4    1477185.2   -858.78251 
 1123000    0.1003838    7.7145719    1477422.7    1477430.5   -859.95878 
 1123500   0.10050882    7.7141664    1478366.3    1478374.1   -859.26666 
 1124000   0.10015302    7.7144314    1478366.2    1478373.9   -863.76663 
 1124500   0.10017296    7.7160749    1478269.1    1478276.9   -860.37242 
 1125000   0.10085455    7.7159302      1479362    1479369.8   -857.63563 
 1125500   0.10027581    7.7172557    1479515.3      1479523   -859.28036 
 1126000   0.10055154    7.7144763    1477310.3    1477318.1   -861.83145 
 1126500   0.10047895    7.7165914    1476630.6    1476638.4   -859.89664 
 1127000   0.10073752    7.7152126      1476447    1476454.8   -860.98103 
 1127500    0.1008247    7.7146435    1476845.3    1476853.1    -859.9868 
 1128000   0.10051819    7.7142738    1476688.3    1476696.1   -859.64968 
 1128500   0.10056325    7.7136376    1474591.1    1474598.9   -861.46249 
 1129000   0.10009441    7.7129058    1474966.3    1474974.1   -861.22166 
 1129500    0.1003595    7.7131713    1475136.2      1475144   -860.81723 
 1130000   0.10017028    7.7140386    1475136.3    1475144.1    -862.5648 
 1130500   0.09999605    7.7148091    1473750.9    1473758.6   -858.68055 
 1131000   0.10036557    7.7122519    1474614.1    1474621.9   -859.02578 
 1131500   0.10050667    7.7139403    1474471.7    1474479.5   -859.17066 
 1132000   0.10041515    7.7135768    1476407.3    1476415.1    -861.0627 
 1132500   0.10031775    7.7133611      1477392    1477399.8   -861.09762 
 1133000   0.10026966    7.7152722    1480454.4    1480462.2    -860.8693 
 1133500   0.10048495    7.7165208    1479345.9    1479353.7   -860.23411 
 1134000   0.10028681    7.7160387    1479345.8    1479353.6   -857.66905 
 1134500   0.10017602    7.7172114    1481785.4    1481793.2   -858.72702 
 1135000   0.10017832    7.7171434    1484647.6    1484655.4   -860.17968 
 1135500    0.1002586    7.7172385    1488213.8    1488221.6   -858.31636 
 1136000   0.10038553    7.7182905    1489088.9    1489096.7    -858.8539 
 1136500  0.099975708    7.7181617    1489861.9    1489869.7   -858.20823 
 1137000   0.10000835    7.7180127      1489862    1489869.7   -861.72489 
 1137500   0.10000367    7.7179601    1491607.4    1491615.2    -859.1394 
 1138000   0.10033176     7.718027    1493168.7    1493176.5   -859.58572 
 1138500   0.10078327    7.7184394    1495383.1    1495390.9   -860.62936 
 1139000   0.10054329    7.7186072    1495409.8    1495417.5    -860.9139 
 1139500   0.10045979    7.7197556    1497515.2    1497522.9   -862.36989 
 1140000    0.1003912    7.7188486    1497515.1    1497522.9   -860.51733 
 1140500   0.10033624    7.7184279    1497621.6    1497629.4   -860.48593 
 1141000   0.10053485     7.720458    1497636.4    1497644.2   -859.23887 
 1141500    0.1003215    7.7206176    1496171.5    1496179.3   -860.44496 
 1142000   0.10013719    7.7217704    1495894.3    1495902.1   -859.17841 
 1142500   0.10021351    7.7221386    1495894.3    1495902.1   -861.31673 
 1143000    0.1000918    7.7217026    1495000.6    1495008.4   -860.75755 
 1143500   0.10001648    7.7217175    1495556.4    1495564.2   -861.08792 
 1144000   0.10011829    7.7194076    1495907.8    1495915.5   -861.55032 
 1144500   0.10049799    7.7214709    1496430.6    1496438.4   -857.91286 
 1145000   0.10057904    7.7193987    1494291.6    1494299.4   -859.85085 
 1145500   0.10047296    7.7209287    1490881.9    1490889.7   -858.69113 
 1146000    0.1002535    7.7197815    1490260.2      1490268   -860.03559 
 1146500   0.10069451     7.722156    1488106.1    1488113.9   -861.72517 
 1147000    0.1003456    7.7211052    1484891.1    1484898.9    -859.9702 
 1147500   0.10024756    7.7206184    1484891.1    1484898.8   -861.63443 
 1148000   0.10011548     7.720302    1484004.2    1484011.9    -860.5948 
 1148500   0.10030414    7.7183406    1480570.4    1480578.2   -858.02328 
 1149000   0.10046792    7.7204392    1479420.7    1479428.5    -860.7743 
 1149500  0.099867945    7.7184798    1479330.2      1479338   -859.09932 
 1150000   0.10017884    7.7185758    1476640.9    1476648.7   -861.43059 
 1150500   0.10030363    7.7178136    1475930.7    1475938.5   -861.75112 
 1151000   0.10006854    7.7181984    1474764.6    1474772.4   -860.76116 
 1151500   0.10024288    7.7178696    1474366.5    1474374.3   -860.52852 
 1152000   0.10056003    7.7176259    1473716.2      1473724   -860.74377 
 1152500   0.10057637    7.7162822    1473716.3    1473724.1   -860.63469 
 1153000   0.10009015    7.7160894    1471927.1    1471934.9   -858.22438 
 1153500   0.10077641    7.7152026    1471766.7    1471774.5   -861.58352 
 1154000   0.10085872    7.7156606    1472317.7    1472325.5   -858.81409 
 1154500   0.10029419    7.7159783    1470715.3      1470723   -861.50955 
 1155000   0.10071354    7.7156312    1470715.3    1470723.1   -859.02478 
 1155500  0.099992648    7.7144068    1469588.3    1469596.1   -861.61429 
 1156000   0.10030579    7.7143517    1468008.2      1468016   -858.87052 
 1156500    0.1004463    7.7133545    1467854.5    1467862.2   -861.83221 
 1157000   0.10055979    7.7123218    1467845.7    1467853.5   -859.28091 
 1157500   0.10039892    7.7117215    1468042.3    1468050.1   -858.59283 
 1158000    0.1000958    7.7125638    1467500.3    1467508.1   -857.68028 
 1158500   0.10057526    7.7121398    1467500.3    1467508.1   -861.40437 
 1159000   0.10019641    7.7106233    1466693.5    1466701.3   -862.27769 
 1159500   0.10061883    7.7110024    1465144.3    1465152.1   -860.79988 
 1160000   0.10063897    7.7091292    1462943.7    1462951.5   -859.00805 
 1160500   0.10015118    7.7083535    1461225.1    1461232.9   -860.00233 
 1161000    0.1006128    7.7078934    1461315.9    1461323.7   -859.44159 
 1161500  0.099906477    7.7072292    1455988.9    1455996.7   -862.63211 
 1162000   0.10049102    7.7068279    1453964.9    1453972.7   -862.20666 
 1162500   0.10019236    7.7062267    1452128.8    1452136.6   -858.53433 
 1163000   0.10045438    7.7053317    1452128.7    1452136.5   -861.88978 
 1163500   0.10026383    7.7045796    1450740.5    1450748.2   -861.66461 
 1164000    0.1002505    7.7035345    1449460.3    1449468.1   -860.13061 
 1164500   0.10056347    7.7031921    1448328.8    1448336.6   -861.49392 
 1165000   0.10031718    7.7031465      1447034    1447041.8   -860.15294 
 1165500   0.10043615    7.7030158    1446471.9    1446479.7   -862.43671 
 1166000   0.10041314    7.7028207    1446471.9    1446479.7   -859.26803 
 1166500   0.10024142    7.7038188    1445180.6    1445188.4   -863.83776 
 1167000   0.10046522    7.7029254    1443467.3      1443475   -859.27073 
 1167500  0.099902293    7.7025522    1443232.5    1443240.3   -860.83484 
 1168000   0.10008081    7.7018693    1443724.1    1443731.9   -857.55701 
 1168500   0.10019624    7.7010025    1443306.2      1443314   -859.65457 
 1169000   0.10037795     7.699773    1443736.8    1443744.5   -860.81904 
 1169500   0.10014721     7.699806    1442632.3      1442640   -858.54685 
 1170000   0.10067291    7.7013185    1442632.3    1442640.1   -862.23614 
 1170500   0.10011779    7.6999536    1443045.7    1443053.5   -860.08428 
 1171000   0.10042709    7.6994373    1444906.4    1444914.1   -861.54912 
 1171500   0.10055776    7.7012274    1446008.3    1446016.1   -860.92886 
 1172000   0.10045773    7.7003939    1447245.2    1447252.9   -863.75948 
 1172500   0.10030567    7.7006775      1448276    1448283.8     -861.726 
 1173000   0.10017989    7.6995444    1449305.2      1449313   -861.71633 
 1173500   0.10052162    7.6999837    1450663.4    1450671.2   -861.21877 
 1174000   0.10068989    7.7001347    1451853.6    1451861.3    -861.1384 
 1174500   0.10027095    7.6985229    1456151.3    1456159.1   -861.40503 
 1175000   0.10048901    7.6990272    1457759.2      1457767   -859.13211 
 1175500   0.10071301    7.6985398      1456237    1456244.7   -858.69295 
 1176000   0.10043476     7.697856    1456791.9    1456799.6   -859.56314 
 1176500   0.10004165    7.6958921    1457313.3    1457321.1   -863.14982 
 1177000   0.10044594    7.6961619    1458277.8    1458285.6   -859.80711 
 1177500   0.10062124    7.6957271    1459905.1    1459912.9   -861.13307 
 1178000   0.10017909    7.6947667    1459905.1    1459912.9   -860.81322 
 1178500   0.10047634    7.6958853    1459812.4    1459820.2   -860.19816 
 1179000   0.10016902    7.6963326    1459812.4    1459820.2   -859.46759 
 1179500   0.10019948    7.6955165    1461830.9    1461838.7   -862.19598 
 1180000   0.10056977    7.6950184    1462236.8    1462244.6   -860.93568 
 1180500    0.1007851    7.6945959    1464963.1    1464970.8   -861.38288 
 1181000   0.10022277    7.6926194    1463596.4    1463604.1   -861.40122 
 1181500  0.099864303    7.6911014    1463912.6    1463920.3   -861.59433 
 1182000   0.10060336    7.6910672    1464367.1    1464374.9   -861.61632 
 1182500   0.10043963    7.6896133      1463885    1463892.7   -858.98011 
 1183000   0.10035165    7.6900476    1464974.6    1464982.4     -862.467 
 1183500   0.10013699    7.6893923    1467319.8    1467327.5   -860.71186 
 1184000   0.10057463    7.6891895    1467319.8    1467327.5    -858.1457 
 1184500   0.10027287    7.6888099    1469415.8    1469423.5   -859.96767 
 1185000   0.10041161    7.6894161    1468254.3      1468262   -861.99195 
 1185500   0.10046992    7.6872617    1470046.7    1470054.5   -858.81757 
 1186000   0.10069026    7.6878518    1469944.5    1469952.3   -861.82246 
 1186500   0.10029507     7.685717    1468377.3      1468385   -859.17426 
 1187000   0.10009913    7.6865783    1468377.3    1468385.1   -860.50993 
 1187500   0.10025146    7.6858244    1469421.3      1469429   -857.20669 
 1188000   0.10016821    7.6852524    1471070.5    1471078.3    -861.8856 
 1188500  0.099916407    7.6853057    1471070.5    1471078.3   -859.93544 
 1189000   0.10065607    7.6856654    1471708.6    1471716.3   -862.81838 
 1189500   0.10064878    7.6835203    1470662.3      1470670   -859.50207 
 1190000   0.10030906     7.682408    1473441.7    1473449.4   -862.10849 
 1190500   0.10039999    7.6831741      1470651    1470658.7   -861.02231 
 1191000   0.10012844    7.6823491      1470651    1470658.8   -860.62649 
 1191500   0.10047568    7.6829229    1469839.1    1469846.8   -861.37614 
 1192000   0.09976525    7.6827045    1466217.5    1466225.3   -858.00249 
 1192500   0.10058749    7.6850389      1462952    1462959.8   -860.38428 
 1193000   0.10029168    7.6844438    1460677.7    1460685.4   -860.15124 
 1193500   0.10043941    7.6850897    1460677.8    1460685.5   -861.31374 
 1194000   0.10035304     7.685313    1457031.2      1457039    -861.8815 
 1194500   0.10071636    7.6856071    1457485.3    1457493.1   -861.79254 
 1195000   0.10022618    7.6860065    1456174.8    1456182.6   -859.61344 
 1195500   0.10030106    7.6858816    1454142.9    1454150.6   -860.14212 
 1196000   0.10003473    7.6869611      1454143    1454150.7   -859.57233 
 1196500   0.10059416    7.6881367    1450030.4    1450038.1   -860.08118 
 1197000   0.10035297     7.688228    1447590.6    1447598.4   -860.31903 
 1197500   0.10083666      7.68773    1446673.9    1446681.7   -860.66217 
 1198000   0.10026434    7.6895495    1445104.4    1445112.2   -859.35871 
 1198500   0.10016799    7.6907933    1443127.8    1443135.6   -860.61713 
 1199000    0.1000899    7.6915726    1439860.2    1439867.9   -857.42277 
 1199500   0.10045206     7.691361    1439860.1    1439867.9   -858.16833 
 1200000   0.10009158     7.691804    1439744.8    1439752.6   -859.53488 
 1200500   0.10062313     7.690919    1439744.9    1439752.7   -861.15124 
 1201000  0.099850194    7.6925619    1440407.7    1440415.5   -859.09047 
 1201500   0.10041618    7.6934509    1440407.6    1440415.4   -860.29703 
 1202000   0.10041001    7.6949705    1441187.4    1441195.1   -861.28296 
 1202500   0.10037426      7.69631    1441680.7    1441688.4   -860.76779 
 1203000   0.10035952    7.6966206    1444752.8    1444760.6    -858.9005 
 1203500   0.10000765    7.6972376    1444752.8    1444760.6   -860.32867 
 1204000   0.10073085    7.6969187    1447070.4    1447078.2   -859.08238 
 1204500   0.10028557    7.6974036    1447976.6    1447984.4   -859.37193 
 1205000   0.10035482    7.6978599    1451205.5    1451213.3   -859.54453 
 1205500   0.10059634    7.6978493    1451205.6    1451213.4   -862.46753 
 1206000   0.10029106    7.6985965    1453036.8    1453044.6   -861.70672 
 1206500   0.10053165    7.6988398    1454464.9    1454472.7   -860.23178 
 1207000   0.10060268    7.6982426    1457069.4    1457077.2   -860.28677 
 1207500  0.099909413    7.6978803    1457902.2    1457909.9   -861.39416 
 1208000    0.1004928    7.6981657    1457902.2      1457910   -860.32366 
 1208500    0.1003912    7.6974794    1456679.7    1456687.4   -860.11551 
 1209000   0.10050386    7.6974026    1457537.1    1457544.9   -859.96008 
 1209500   0.10058338     7.697096    1457649.2      1457657   -859.42085 
 1210000   0.10079096    7.6952159    1457649.2      1457657    -861.8096 
 1210500   0.10009403    7.6958813    1457651.8    1457659.5   -861.69366 
 1211000   0.10033647    7.6975521    1457317.8    1457325.6   -858.42651 
 1211500   0.10048444    7.6973432    1458248.7    1458256.4   -859.83729 
 1212000   0.10048767    7.6977539    1458803.8    1458811.6    -858.4588 
 1212500   0.10052662    7.6969102    1458435.9    1458443.7    -857.7542 
 1213000   0.10056977    7.6975839    1458435.9    1458443.7   -860.18004 
 1213500    0.1005425    7.6958803    1458161.5    1458169.3   -860.33117 
 1214000   0.10040745    7.6981321    1458682.5    1458690.2   -860.75079 
 1214500   0.10056977    7.6994757    1456102.5    1456110.2   -860.73935 
 1215000   0.10061382    7.6988265    1456102.6    1456110.3   -861.57615 
 1215500   0.10025856    7.6986068    1454110.7    1454118.5   -861.40558 
 1216000   0.10047352    7.6987103    1452390.4    1452398.1   -861.80487 
 1216500   0.10065104    7.6990384    1452935.5    1452943.3   -860.58727 
 1217000    0.1004676    7.7001852    1453137.9    1453145.7    -860.9506 
 1217500   0.10018968    7.7005257    1454951.2      1454959   -859.97938 
 1218000   0.10049772    7.7019652    1454951.1    1454958.9      -862.45 
 1218500   0.10005808    7.7008788    1453926.6    1453934.4   -862.98132 
 1219000   0.10058599    7.7011963    1453926.7    1453934.5   -861.03606 
 1219500   0.10075649    7.7026699    1451965.4    1451973.2   -859.90307 
 1220000      0.10055    7.7038222    1451271.8    1451279.6   -858.78883 
 1220500    0.1002319    7.7047551    1451271.9    1451279.6   -859.37962 
 1221000   0.10041621     7.703851    1450481.3      1450489   -858.52819 
 1221500    0.1007347    7.7036231      1449421    1449428.8   -861.37181 
 1222000   0.10051444    7.7050148    1448792.2      1448800    -862.2819 
 1222500   0.10050836    7.7052314    1448792.3    1448800.1   -859.14489 
 1223000   0.10028248    7.7057612    1446940.5    1446948.2   -860.58592 
 1223500   0.10019777    7.7067232    1446813.5    1446821.3   -860.67913 
 1224000    0.1004529    7.7070142    1446948.6    1446956.3   -862.10965 
 1224500   0.10037634    7.7053964    1446434.7    1446442.5   -857.97856 
 1225000   0.10022466    7.7069989    1446350.4    1446358.2   -859.91297 
 1225500   0.10043972    7.7066826    1446125.8    1446133.5   -859.36066 
 1226000   0.10019643    7.7065012    1446125.7    1446133.5   -859.86733 
 1226500   0.10035062    7.7068769    1443024.7    1443032.5   -861.58078 
 1227000   0.10017523    7.7065546    1441734.7    1441742.5   -860.63576 
 1227500   0.10030323     7.708214    1442017.1    1442024.8   -861.75457 
 1228000   0.10023703    7.7084381    1441886.6    1441894.3   -860.18834 
 1228500   0.10063213    7.7096818    1441886.5    1441894.3   -861.16595 
 1229000   0.10075445    7.7096138      1441732    1441739.8   -861.70947 
 1229500    0.1003153    7.7097127    1441224.4    1441232.2   -862.19528 
 1230000  0.099993519    7.7082928    1441510.6    1441518.4   -859.56032 
 1230500    0.1005447    7.7101968    1441678.6    1441686.4   -861.60014 
 1231000  0.099724082    7.7111521    1443958.9    1443966.7   -860.37467 
 1231500   0.10055186    7.7112844    1443832.4    1443840.2    -859.8044 
 1232000   0.10018661    7.7110088    1445645.7    1445653.5   -860.53601 
 1232500    0.1005891     7.710245    1445645.9    1445653.7   -860.33355 
 1233000   0.10077011    7.7112773    1445823.1    1445830.8   -860.68874 
 1233500   0.10039734    7.7105035    1446748.8    1446756.6   -861.20781 
 1234000   0.10068805    7.7117026    1447536.1    1447543.9   -859.79508 
 1234500   0.10061906    7.7119619    1448118.3    1448126.1   -860.66859 
 1235000  0.099993767    7.7114609    1447647.7    1447655.5   -860.91494 
 1235500  0.099988698    7.7116501    1447404.9    1447412.7   -858.13423 
 1236000    0.1004964    7.7114986    1449242.4    1449250.2   -859.63324 
 1236500   0.10017775    7.7110149    1449063.2    1449070.9   -859.56104 
 1237000   0.10021742    7.7107178    1449381.6    1449389.4   -860.89365 
 1237500   0.10025186    7.7097602    1449381.5    1449389.3   -857.99698 
 1238000   0.10030908    7.7080617      1447201    1447208.8   -861.89319 
 1238500   0.10042158    7.7072797    1446757.8    1446765.6   -862.17299 
 1239000   0.10047593    7.7089393    1447569.7    1447577.5    -858.2953 
 1239500   0.10024569    7.7077974    1447569.8    1447577.5   -858.53587 
 1240000   0.10057663     7.708232    1446611.4    1446619.2   -860.86248 
 1240500   0.10026721     7.706841    1444869.9    1444877.6   -859.40367 
 1241000   0.10048222    7.7067089    1445168.5    1445176.3   -861.27215 
 1241500   0.10010639    7.7041519    1445126.9    1445134.7   -858.34546 
 1242000   0.10035994    7.7049384    1440885.6    1440893.3   -859.15118 
 1242500    0.1002796    7.7058686    1440232.8    1440240.5   -860.91577 
 1243000   0.10038497    7.7035225    1439646.8    1439654.6   -858.30756 
 1243500   0.10005858    7.7040304    1438714.3    1438722.1   -859.40582 
 1244000   0.10011634    7.7046385    1438860.8    1438868.5   -861.16804 
 1244500   0.10048769    7.7043528    1439868.8    1439876.6   -860.68184 
 1245000   0.10034158    7.7038284      1440733    1440740.8   -860.87476 
 1245500   0.10030293    7.7033393    1439184.3      1439192   -861.36627 
 1246000   0.10010248    7.7023904      1438685    1438692.8   -858.78152 
 1246500   0.10001216    7.7032473      1438685    1438692.8   -861.40853 
 1247000   0.10011565    7.7052234    1437255.4    1437263.2   -862.01048 
 1247500   0.10043279     7.705275    1437023.8    1437031.6   -862.10373 
 1248000   0.10000791    7.7042584    1435874.2      1435882   -859.32778 
 1248500   0.10021936    7.7050707    1434668.7    1434676.5   -860.51526 
 1249000   0.10068275    7.7063545    1433724.7    1433732.5   -860.33365 
 1249500  0.099916511    7.7054421    1432134.4    1432142.2   -862.24926 
 1250000   0.10019515     7.706601    1430995.3    1431003.1   -862.54533 
 1250500   0.10003751    7.7041577    1430995.3      1431003   -859.95425 
 1251000    0.1003996    7.7049314    1430406.1    1430413.9   -860.97189 
 1251500   0.10012559    7.7055021    1430116.2      1430124   -860.17843 
 1252000   0.10064472    7.7049695    1429436.3    1429444.1   -860.21911 
 1252500   0.10058642    7.7038771    1428834.1    1428841.9   -858.71064 
 1253000    0.1005734    7.7040218      1428479    1428486.8     -859.974 
 1253500   0.10004242    7.7040445    1428859.3    1428867.1    -862.2225 
 1254000   0.10069582    7.7028454    1427625.8    1427633.6   -862.50488 
 1254500   0.10076574    7.7021402    1427625.8    1427633.5   -862.30279 
 1255000   0.10010441    7.7015125    1426910.7    1426918.5   -859.73691 
 1255500   0.10024956    7.7014091      1428714    1428721.7     -861.683 
 1256000   0.10052764       7.7008    1428870.4    1428878.2   -863.88408 
 1256500   0.09990042    7.6991027    1430383.5    1430391.3   -857.88765 
 1257000   0.10057217    7.6979618    1429993.4    1430001.2   -862.43907 
 1257500   0.10059507    7.6971979    1429993.4    1430001.1   -859.88115 
 1258000    0.1008151    7.6953607    1430986.5    1430994.3   -859.04784 
 1258500   0.10056027    7.6945044    1432552.6    1432560.4   -861.01825 
 1259000   0.10037425    7.6946647    1432474.5    1432482.3   -861.96101 
 1259500   0.10047964    7.6942822    1432883.1    1432890.9   -859.03485 
 1260000   0.10051334    7.6948085    1432883.2    1432890.9   -857.56819 
 1260500   0.10053144    7.6950906    1433885.9    1433893.6   -860.78792 
 1261000   0.10051963    7.6944566    1436794.3    1436802.1    -861.7162 
 1261500   0.10057308    7.6937066    1436794.3    1436802.1   -858.69829 
 1262000   0.10074389    7.6923535    1437493.7    1437501.4    -861.2016 
 1262500    0.1008335    7.6926799    1435986.1    1435993.8   -861.92232 
 1263000   0.10029154    7.6917686    1437648.4    1437656.1   -859.99688 
 1263500   0.10033672    7.6940541    1437328.2      1437336   -860.15186 
 1264000   0.10031714     7.693324    1439660.9    1439668.7   -860.89831 
 1264500   0.10042115    7.6918913    1439660.9    1439668.7   -860.09551 
 1265000   0.10066439    7.6913997    1442011.3    1442019.1   -861.40019 
 1265500   0.10031349    7.6911127    1443207.6    1443215.4   -860.30586 
 1266000   0.10010999    7.6914688    1443207.6    1443215.4   -859.72512 
 1266500   0.10035083    7.6921758    1446610.6    1446618.4   -857.75811 
 1267000   0.10027461    7.6932792    1449288.4    1449296.2   -861.59112 
 1267500   0.10057737    7.6930745    1452783.5    1452791.3   -863.46749 
 1268000   0.10068747    7.6918298      1454656    1454663.7   -861.75441 
 1268500   0.10039407    7.6906858    1455899.5    1455907.2   -859.25699 
 1269000   0.10039039    7.6915615    1458303.2      1458311   -861.24627 
 1269500   0.10066253    7.6891792    1458374.4    1458382.2   -861.13736 
 1270000   0.10021798    7.6908103    1459380.6    1459388.3   -858.99258 
 1270500   0.10034731    7.6919972    1460329.5    1460337.3   -861.13261 
 1271000  0.099713189    7.6914778    1461872.2      1461880   -860.56346 
 1271500   0.10050163    7.6903277    1460913.4    1460921.2    -860.1871 
 1272000   0.10010431    7.6909311    1461417.6    1461425.4   -861.41442 
 1272500    0.1006645    7.6903792    1460708.9    1460716.7   -859.49557 
 1273000   0.10041368    7.6894763    1462471.8    1462479.6   -858.53816 
 1273500   0.10034676     7.690664    1459857.7    1459865.5   -861.16973 
 1274000   0.10048361    7.6914141    1458428.2    1458435.9    -860.2272 
 1274500   0.10036979    7.6914705    1458428.1    1458435.9   -861.37164 
 1275000   0.10013172    7.6915168    1458625.4    1458633.2   -859.60445 
 1275500   0.10009997    7.6919653      1460343    1460350.7   -859.35997 
 1276000   0.10019629      7.69113    1460459.8    1460467.6   -862.04765 
 1276500   0.10040896    7.6908865    1460788.3      1460796   -862.54918 
 1277000   0.10049918    7.6919615    1460883.4    1460891.2   -859.71871 
 1277500   0.10037301    7.6915479    1458690.6    1458698.4   -860.58508 
 1278000   0.10054478    7.6911862    1458690.6    1458698.4   -859.10978 
 1278500   0.10007776    7.6910051    1459367.1    1459374.8   -861.39562 
 1279000   0.10056928    7.6935351    1458225.1    1458232.8   -862.38201 
 1279500   0.10057937    7.6927554    1458225.1    1458232.9   -861.66486 
 1280000   0.10006679    7.6942302    1456247.5    1456255.2   -860.63069 
 1280500   0.10049832    7.6932003    1453357.3    1453365.1   -861.92953 
 1281000   0.10027514    7.6947618    1453331.5    1453339.2   -861.51602 
 1281500   0.10058035    7.6939319    1450785.6    1450793.4   -857.70184 
 1282000   0.10025527    7.6933827    1447775.3    1447783.1   -860.86097 
 1282500   0.10074788    7.6936404    1447775.3    1447783.1   -862.45659 
 1283000   0.10006357    7.6919241    1444260.5    1444268.3   -863.28472 
 1283500   0.10036001    7.6911416    1442593.8    1442601.5   -860.44156 
 1284000   0.10018124    7.6928498    1438970.1    1438977.9   -858.73375 
 1284500   0.10075857    7.6918059    1436664.8    1436672.6   -860.28628 
 1285000   0.10093076    7.6932582    1436664.8    1436672.6   -859.47633 
 1285500   0.10042972    7.6925004    1434141.7    1434149.5   -859.81248 
 1286000   0.10047427    7.6931278    1434141.7    1434149.5   -861.26323 
 1286500   0.10026868    7.6929209    1433136.2      1433144   -861.63284 
 1287000   0.10014779    7.6919317      1431125    1431132.7   -863.07372 
 1287500   0.10038564     7.691303    1429875.4    1429883.1   -858.88152 
 1288000   0.10033461     7.691243    1428887.8    1428895.6   -861.61801 
 1288500   0.10029306    7.6916798    1426362.9    1426370.7   -860.57402 
 1289000   0.10046119    7.6917656    1424993.4    1425001.2   -860.49748 
 1289500   0.10085974    7.6933202    1422991.7    1422999.5   -862.10253 
 1290000    0.1006713    7.6940385    1422624.6    1422632.4   -860.70183 
 1290500   0.10046222     7.692341    1422624.7    1422632.4   -859.74426 
 1291000   0.10046789    7.6929279    1419948.6    1419956.4   -860.43104 
 1291500   0.10053008    7.6918016    1420238.4    1420246.1   -859.80918 
 1292000   0.10054394    7.6911019    1418840.1    1418847.9    -858.4676 
 1292500   0.10035025    7.6921828    1419168.7    1419176.5   -859.38582 
 1293000   0.10034775    7.6915556    1419168.8    1419176.5   -859.01596 
 1293500   0.10052698    7.6924597    1416779.2      1416787   -858.95356 
 1294000   0.10021286    7.6919579    1415660.1    1415667.9   -860.52926 
 1294500   0.10066039    7.6925668    1415076.6    1415084.3   -860.45522 
 1295000   0.10058651    7.6913851    1414568.1    1414575.8   -861.62911 
 1295500   0.10054373    7.6918189    1415233.2      1415241   -859.49087 
 1296000   0.10087983    7.6932737    1414889.1    1414896.8   -859.41582 
 1296500   0.10056081    7.6928451    1414401.2      1414409   -859.38867 
 1297000   0.10046284    7.6937235    1415355.3    1415363.1    -859.1115 
 1297500   0.10042319    7.6946623    1414376.2      1414384   -860.42256 
 1298000    0.1002352    7.6953042    1413901.5    1413909.2   -862.57154 
 1298500   0.10051078     7.695869    1413185.4    1413193.1   -858.25159 
 1299000   0.10069629    7.6960662    1412815.3    1412823.1   -858.13832 
 1299500   0.10061595     7.696682    1412272.8    1412280.5   -862.95405 
 1300000   0.10017151    7.6969143    1414993.8    1415001.6   -859.48677 
 1300500    0.1003611    7.6965753    1416648.7    1416656.5   -859.83659 
 1301000   0.10044383    7.6952887    1416648.8    1416656.5   -861.51439 
 1301500   0.10052464    7.6975945    1416608.7    1416616.5   -859.73735 
 1302000   0.10047337    7.6965554      1418404    1418411.8   -859.88519 
 1302500   0.10064333    7.6948614    1419030.3    1419038.1   -859.00687 
 1303000   0.10035989    7.6946091      1421812    1421819.8   -859.57521 
 1303500   0.10040368     7.694097    1423067.2      1423075   -858.28948 
 1304000   0.10015169    7.6956718    1426830.1    1426837.9   -860.51107 
 1304500   0.10025459    7.6958639    1428159.9    1428167.7   -860.78178 
 1305000   0.10047352     7.695881    1428159.9    1428167.6   -862.05185 
 1305500   0.10045715    7.6948846    1431904.7    1431912.5    -861.9168 
 1306000   0.10061232    7.6954915    1431904.7    1431912.4   -857.86393 
 1306500   0.10006081    7.6938476    1432962.4    1432970.1   -857.34229 
 1307000   0.10004082    7.6953369    1435520.9    1435528.6   -861.27016 
 1307500   0.10035551    7.6950193    1438237.4    1438245.2   -859.46626 
 1308000   0.10038069    7.6954844    1440224.3      1440232   -859.22744 
 1308500   0.10022252    7.6947719    1439984.5    1439992.3   -860.78337 
 1309000  0.099988729    7.6941018    1439984.6    1439992.3   -862.51401 
 1309500   0.10021115    7.6936841    1440515.7    1440523.5   -861.31123 
 1310000   0.10024283    7.6918112    1440955.5    1440963.3   -860.68234 
 1310500   0.10040325    7.6924497    1441725.1    1441732.8   -860.88905 
 1311000   0.10009833     7.693636    1442562.1    1442569.9   -861.76095 
 1311500    0.1003045     7.692617    1441464.9    1441472.6   -860.82761 
 1312000   0.10027239    7.6918289    1442665.4    1442673.1   -860.29106 
 1312500   0.10006456    7.6913014    1442963.7    1442971.5   -860.42762 
 1313000   0.10038766     7.693289    1442722.4    1442730.2   -860.18805 
 1313500    0.1001377    7.6917324    1442722.4    1442730.1   -862.36432 
 1314000   0.10039186    7.6919874    1442526.3      1442534   -860.28369 
 1314500   0.10051606    7.6923649    1442135.2    1442142.9   -859.16113 
 1315000   0.10002164    7.6915018    1442135.2      1442143    -858.8445 
 1315500    0.1005988    7.6909261    1439597.9    1439605.7   -859.83336 
 1316000   0.10046479    7.6928658      1440276    1440283.7   -858.01878 
 1316500   0.10037727    7.6911374    1440980.5    1440988.3   -863.31181 
 1317000  0.099972044    7.6895626    1440980.5    1440988.3   -860.51401 
 1317500   0.10023866    7.6891426    1440397.4    1440405.2   -860.99513 
 1318000   0.10054927    7.6892462    1439392.3    1439400.1   -860.53755 
 1318500   0.10029158     7.688929      1437202    1437209.8   -859.29135 
 1319000   0.10028925    7.6885479    1436629.9    1436637.7   -860.67886 
 1319500   0.10076167    7.6885533      1436630    1436637.7   -860.51305 
 1320000   0.10081285    7.6878286    1435523.6    1435531.4   -860.93396 
 1320500   0.10064979    7.6884612    1436292.3    1436300.1   -862.84391 
 1321000   0.10085821    7.6871685    1435602.6    1435610.3   -858.19604 
 1321500   0.10037261    7.6837589    1435506.9    1435514.6   -860.38808 
 1322000   0.10041608    7.6844336    1435506.8    1435514.6   -860.42866 
 1322500  0.099885388    7.6842845    1438394.8    1438402.5    -861.3794 
 1323000   0.10043837    7.6855261    1439086.7    1439094.5   -859.39596 
 1323500   0.10008567    7.6838636      1440620    1440627.7   -857.46274 
 1324000   0.10038954    7.6852392    1441601.4    1441609.1    -862.1529 
 1324500    0.1000414    7.6852957    1443386.2    1443393.9   -860.81807 
 1325000   0.10046664    7.6859295    1442865.2      1442873   -860.45101 
 1325500  0.099972379    7.6854137    1447738.4    1447746.1   -859.33499 
 1326000   0.10040358    7.6835685    1447293.6    1447301.3   -859.68325 
 1326500   0.10052733    7.6823011    1448966.8    1448974.6   -860.23264 
 1327000   0.10004307    7.6814673    1450368.8    1450376.5   -861.13573 
 1327500    0.1002598     7.682877      1452513    1452520.7   -860.94235 
 1328000   0.10029143    7.6824876    1453796.9    1453804.6   -861.04518 
 1328500   0.10030081    7.6823245    1458361.1    1458368.8   -860.55296 
 1329000  0.099985322    7.6834117    1458361.1    1458368.8   -858.40621 
 1329500   0.10052244    7.6840245    1460909.5    1460917.3   -857.92466 
 1330000   0.10056727    7.6827006    1461790.5    1461798.2   -862.76901 
 1330500    0.1005766    7.6833559    1464105.5    1464113.2   -858.96076 
 1331000   0.10010404    7.6836352    1467717.6    1467725.4   -860.81514 
 1331500   0.10043984    7.6835433    1467717.6    1467725.4    -858.7067 
 1332000   0.10033007    7.6846512    1469474.6    1469482.3   -861.17654 
 1332500   0.10022998    7.6828137    1470401.2      1470409    -862.3035 
 1333000   0.10016801    7.6824753    1472055.3      1472063   -862.86059 
 1333500   0.10033397    7.6841246    1474052.6    1474060.4   -862.68548 
 1334000   0.10054435    7.6843582    1474052.6    1474060.4   -859.01859 
 1334500   0.10053157    7.6847105    1475382.7    1475390.4   -860.21463 
 1335000   0.10081668     7.685007    1474762.3    1474770.1   -860.46881 
 1335500   0.10013332    7.6849591    1476516.1    1476523.8    -859.8089 
 1336000   0.10060839    7.6849372    1477718.9    1477726.7   -858.32668 
 1336500   0.10058359    7.6840282    1477718.9    1477726.7     -862.079 
 1337000   0.10060336    7.6840695    1479370.3    1479378.1   -859.65825 
 1337500    0.1001326    7.6843345    1480602.8    1480610.5   -861.45746 
 1338000   0.10030444    7.6832945    1484131.6    1484139.3   -862.04973 
 1338500   0.10033703    7.6819456    1488011.1    1488018.9   -860.26964 
 1339000   0.10064485    7.6816637    1490076.9    1490084.6   -860.35118 
 1339500   0.10056739    7.6819924    1492168.4    1492176.2   -858.95591 
 1340000    0.1004961    7.6830709    1492820.4    1492828.1   -860.96779 
 1340500   0.10060254    7.6845307    1492820.4    1492828.1   -860.89801 
 1341000   0.10054367    7.6842479    1498320.8    1498328.5   -860.46539 
 1341500   0.10012576    7.6847236      1497459    1497466.8    -859.4333 
 1342000   0.10038556    7.6843341    1496638.5    1496646.3   -862.33597 
 1342500   0.10043385    7.6830787    1496638.5    1496646.2    -861.1808 
 1343000   0.10063266    7.6818427    1493616.6    1493624.4   -864.38589 
 1343500   0.10036872    7.6826825    1493616.7    1493624.4   -860.63239 
 1344000   0.10060772    7.6836504    1491233.8    1491241.5    -860.6799 
 1344500   0.10028963    7.6839579    1490520.9    1490528.7   -860.00255 
 1345000   0.10024581    7.6822648    1488616.2      1488624   -860.48124 
 1345500   0.10033779    7.6838898    1488959.2    1488966.9   -861.17295 
 1346000   0.10063006    7.6848506      1488959    1488966.8   -861.02396 
 1346500   0.10053128      7.68372    1488688.5    1488696.2   -858.01954 
 1347000   0.10056887    7.6854966    1487422.4    1487430.1   -860.40663 
 1347500   0.10031861    7.6858964      1486200    1486207.8   -858.92388 
 1348000   0.10068288    7.6871262    1486391.9    1486399.7   -861.26749 
 1348500   0.10073157    7.6848858    1486391.8    1486399.6   -862.01181 
 1349000   0.10048193    7.6863189      1484663    1484670.8   -859.88544 
 1349500   0.10011635    7.6866395    1483713.2    1483720.9   -859.23188 
 1350000   0.10035898    7.6868163    1484649.7    1484657.5    -862.1506 
 1350500   0.10014761     7.687414    1483761.8    1483769.6   -860.63435 
 1351000   0.10069047    7.6876095    1485472.2      1485480   -860.14237 
 1351500   0.10011166    7.6881943    1486789.8    1486797.5   -859.16588 
 1352000   0.10036718     7.688559    1486789.7    1486797.5   -861.71091 
 1352500   0.10068324    7.6890118    1486486.6    1486494.4   -859.49946 
 1353000   0.10032816    7.6877745    1488636.7    1488644.4   -860.66506 
 1353500    0.1004463    7.6880768    1487497.6    1487505.4   -858.55827 
 1354000   0.10034206    7.6892284    1487447.6    1487455.4   -861.81483 
 1354500   0.10035312    7.6893935    1486135.1    1486142.8   -860.49892 
 1355000   0.10053485    7.6907176    1484164.3      1484172    -859.9274 
 1355500   0.10038119    7.6907538    1484164.2      1484172   -860.44163 
 1356000    0.1003693    7.6913308    1481848.4    1481856.2   -861.59455 
 1356500   0.10030476     7.692536      1481385    1481392.8   -863.49603 
 1357000   0.10067277    7.6915103    1480929.9    1480937.7    -860.1853 
 1357500    0.1003483    7.6918267    1482394.9    1482402.7   -860.56919 
 1358000   0.10039686    7.6925627    1482394.9    1482402.7   -860.25024 
 1358500   0.10033267    7.6935952    1483351.6    1483359.3   -860.17252 
 1359000   0.10046574    7.6940147    1484489.5    1484497.3   -859.98683 
 1359500   0.10041831    7.6935911    1486531.6    1486539.3   -861.79811 
 1360000   0.10009401    7.6939295    1486577.7    1486585.5   -860.61567 
 1360500   0.10042865    7.6943768    1483955.6    1483963.4   -860.03364 
 1361000   0.10092921    7.6932354    1481271.3      1481279   -861.09263 
 1361500   0.10018047    7.6933851    1481271.3    1481279.1   -860.95525 
 1362000   0.10011216    7.6923904    1478749.2      1478757   -861.63425 
 1362500    0.1001122    7.6914926      1475459    1475466.8   -862.24117 
 1363000   0.10040438    7.6921756    1475965.2      1475973   -859.87286 
 1363500  0.099943049    7.6935939    1476352.9    1476360.6   -858.79144 
 1364000    0.1005759    7.6938515    1475244.4    1475252.2   -861.64425 
 1364500   0.10055446    7.6926801    1476231.2      1476239   -860.07742 
 1365000   0.10031597    7.6931675    1476231.2    1476238.9   -863.32659 
 1365500   0.10042119    7.6921243    1477273.2    1477280.9   -862.43487 
 1366000     0.100597    7.6937025      1476747    1476754.7   -862.23237 
 1366500   0.10027507    7.6925218    1475429.3    1475437.1   -862.39345 
 1367000   0.10058073    7.6932059    1474545.7    1474553.5   -860.58759 
 1367500   0.10047074    7.6920714    1474545.8    1474553.6   -859.65685 
 1368000   0.10046107    7.6924591    1473937.7    1473945.4   -859.45911 
 1368500   0.10039234    7.6934588    1471767.8    1471775.5    -862.6194 
 1369000    0.1001554    7.6938395    1471132.9    1471140.7   -861.16108 
 1369500   0.10038958    7.6941801    1470485.1    1470492.9   -860.36539 
 1370000   0.10034273    7.6949189    1472170.6    1472178.4   -857.76324 
 1370500   0.10012963     7.694835    1472170.7    1472178.4   -861.72382 
 1371000   0.10059506    7.6948747    1472882.8    1472890.6   -860.36358 
 1371500   0.10043192    7.6937756    1471061.8    1471069.6   -861.66399 
 1372000   0.10058572    7.6957594    1470699.6    1470707.4   -860.35283 
 1372500   0.10047026    7.6965564    1467520.6    1467528.4   -859.06731 
 1373000   0.10041467    7.6965074    1464691.3    1464699.1   -859.80327 
 1373500   0.10036537     7.697207    1463390.5    1463398.2   -860.00694 
 1374000   0.10057389    7.6957679    1462471.7    1462479.5   -857.63892 
 1374500   0.10073542    7.6964786    1462471.7    1462479.4   -859.34757 
 1375000    0.1003848    7.6971066    1463067.5    1463075.3   -862.17567 
 1375500  0.099808165    7.6990592    1461528.1    1461535.8   -861.95136 
 1376000    0.1003271    7.6984472    1462102.9    1462110.6   -859.06776 
 1376500    0.1001434    7.6982992    1462102.8    1462110.5   -862.11967 
 1377000   0.10049283      7.69916    1462515.7    1462523.4   -858.38348 
 1377500   0.10046482     7.697166    1460174.7    1460182.4   -860.81334 
 1378000   0.10002414    7.6968313      1459670    1459677.7   -860.83649 
 1378500   0.10055869    7.6971701      1456136    1456143.8   -861.73196 
 1379000   0.10004668    7.6966567    1455922.4    1455930.2   -862.16678 
 1379500   0.10000903    7.6958183    1455922.4    1455930.1   -860.44829 
 1380000   0.10027739    7.6955174    1456338.7    1456346.4   -863.17265 
 1380500  0.099856589     7.695107    1454854.1    1454861.9   -857.90117 
 1381000   0.10039772    7.6944073    1454964.6    1454972.4    -861.4054 
 1381500   0.10052934    7.6952502    1453449.6    1453457.4   -859.64111 
 1382000  0.099934536    7.6954922    1453449.6    1453457.4   -861.40149 
 1382500   0.10047033    7.6953837    1453064.7    1453072.4   -861.54441 
 1383000   0.10018079    7.6963546      1451670    1451677.8   -860.20337 
 1383500   0.10022804    7.6952752    1452173.2    1452180.9    -859.3533 
 1384000   0.10056483    7.6951798    1452173.1    1452180.9   -857.90587 
 1384500   0.10029543    7.6961624    1453567.3    1453575.1   -860.76472 
 1385000   0.10038456    7.6961734    1453328.9    1453336.7   -861.75801 
 1385500   0.10057625    7.6967681    1454356.9    1454364.7   -861.31979 
 1386000   0.10072171     7.696519    1456219.4    1456227.2   -860.00733 
 1386500   0.10044722    7.6967898    1456219.4    1456227.1   -861.73423 
 1387000    0.1004013    7.6979387    1457391.7    1457399.5   -860.65141 
 1387500   0.10021077    7.6975459    1458871.5    1458879.2   -860.80163 
 1388000   0.10067548    7.6972567    1458871.4    1458879.1   -859.87483 
 1388500   0.10055892    7.6981817    1460130.8    1460138.6   -862.63245 
 1389000   0.10014505    7.6978879      1461397    1461404.8   -859.71962 
 1389500   0.10027313    7.6984096    1461505.5    1461513.3   -859.67446 
 1390000  0.099913874    7.6963492    1463017.1    1463024.9   -860.43092 
 1390500   0.10012602    7.6956221    1463016.9    1463024.7   -859.95448 
 1391000   0.10062122     7.697538    1463482.3    1463490.1   -864.39789 
 1391500   0.10093302    7.6961416    1466031.7    1466039.5   -858.13081 
 1392000   0.10034138    7.6942524      1468740    1468747.8   -859.67074 
 1392500  0.099938253    7.6940597    1471086.1    1471093.9    -860.4844 
 1393000   0.10003504     7.693627    1471086.1    1471093.9     -860.207 
 1393500   0.10050573    7.6936247    1474325.9    1474333.7   -860.97792 
 1394000   0.10069134    7.6940822    1474984.1    1474991.9   -859.55568 
 1394500   0.10046389    7.6946161    1475119.7    1475127.4   -859.94948 
 1395000   0.10013738    7.6948972    1475119.6    1475127.4   -858.87653 
 1395500   0.10069861    7.6932954    1476839.8    1476847.6   -861.30191 
 1396000    0.1002254    7.6917843    1478812.3    1478820.1   -859.59751 
 1396500   0.10025569    7.6923778      1479054    1479061.7   -861.11309 
 1397000   0.10059416    7.6928521    1479682.8    1479690.6   -858.99457 
 1397500   0.10052182    7.6923854    1480244.5    1480252.3   -861.85914 
 1398000   0.10027179    7.6943458    1483077.2      1483085   -860.78966 
 1398500   0.10057202    7.6946775    1484942.7    1484950.5   -860.38429 
 1399000   0.10032688     7.694766    1482716.7    1482724.5   -859.11117 
 1399500   0.10012373    7.6950438    1482716.7    1482724.4    -860.4845 
 1400000   0.10031026    7.6959524    1483977.8    1483985.6   -860.73888 
 1400500  0.099970615    7.6943419    1483977.8    1483985.6   -859.94322 
 1401000   0.10033841    7.6944181    1483550.4    1483558.2    -861.9398 
 1401500   0.10012976    7.6953536    1484920.8    1484928.6   -862.05369 
 1402000   0.10019672    7.6953913    1486101.1    1486108.9   -858.96061 
 1402500    0.1006742    7.6946159      1486101    1486108.8   -860.98111 
 1403000  0.099989592    7.6945747    1484250.7    1484258.5   -862.41656 
 1403500    0.1001279    7.6945608    1484970.4    1484978.2   -860.81177 
 1404000    0.1002866    7.6958365    1485530.9    1485538.7   -861.02436 
 1404500   0.10012596    7.6971725    1485386.4    1485394.1   -862.05441 
 1405000   0.10036492    7.6969142    1484523.5    1484531.3   -857.81976 
 1405500   0.10068811    7.6972085    1484523.6    1484531.4   -860.78115 
 1406000   0.10039892    7.6968622    1483306.6    1483314.4   -858.25247 
 1406500   0.10075885    7.6960877    1483431.7    1483439.5   -859.00103 
 1407000   0.10031785     7.695151    1481780.2      1481788   -861.39444 
 1407500   0.10006901    7.6949814    1481780.2    1481787.9   -857.96055 
 1408000   0.10083652    7.6962193    1479606.5    1479614.2   -860.50584 
 1408500   0.10054039    7.6946728    1480820.5    1480828.2   -858.83662 
 1409000  0.099939254    7.6947338    1478377.3    1478385.1   -858.81285 
 1409500    0.1002596    7.6943943    1477048.8    1477056.5   -858.55942 
 1410000      0.10028    7.6955774    1477048.8    1477056.5   -862.58171 
 1410500   0.10003982    7.6951901    1476789.8    1476797.5   -858.45491 
 1411000   0.10081127    7.6959825    1474801.9    1474809.7   -861.86763 
 1411500   0.10007338     7.695346    1472673.1    1472680.9   -859.39551 
 1412000   0.10050347    7.6951627    1472420.1    1472427.8   -862.42722 
 1412500   0.10055237    7.6956579      1469342    1469349.7   -857.90214 
 1413000   0.10027266    7.6940958    1467531.3    1467539.1   -858.27452 
 1413500   0.10051287    7.6944027    1467531.4    1467539.2    -858.2225 
 1414000    0.1003735    7.6941719    1465251.6    1465259.4   -861.36976 
 1414500   0.10044695     7.693318    1464782.6    1464790.4   -861.07201 
 1415000   0.10077254    7.6920591      1463467    1463474.8   -859.43268 
 1415500   0.10031366    7.6918915    1463514.8    1463522.6   -864.67078 
 1416000   0.10037161    7.6922816    1461725.1    1461732.9   -859.30652 
 1416500   0.10088599    7.6917582    1459576.2      1459584   -860.16823 
 1417000   0.10076613    7.6923856    1459143.2      1459151   -861.42676 
 1417500   0.10076169    7.6904941    1459143.3    1459151.1   -858.75623 
 1418000   0.10021301    7.6905001    1458109.1    1458116.9   -861.25689 
 1418500   0.10030611    7.6891047    1454614.3    1454622.1   -861.84673 
 1419000    0.1004166    7.6889797    1454374.3    1454382.1   -861.37855 
 1419500   0.10020974    7.6891494    1454227.2      1454235   -859.75355 
 1420000   0.10056301    7.6898173    1454227.4    1454235.2   -861.87363 
 1420500   0.10063902    7.6894044      1454839    1454846.8    -861.0517 
 1421000   0.10072354    7.6904487    1452918.9    1452926.7    -859.9712 
 1421500    0.1008028    7.6897968    1451700.4    1451708.2   -861.15259 
 1422000   0.10029355    7.6876497    1451120.5    1451128.3   -860.18182 
 1422500   0.10019871    7.6887631    1451120.4    1451128.1   -860.90113 
 1423000   0.10046296    7.6880933    1448898.5    1448906.2   -858.94894 
 1423500   0.10048476    7.6879083    1447873.2      1447881   -860.93098 
 1424000   0.10040609    7.6877781    1448756.2      1448764   -860.62954 
 1424500   0.10090795    7.6873693    1448703.8    1448711.5    -861.8744 
 1425000  0.099975158    7.6887997    1448703.7    1448711.5    -858.8544 
 1425500   0.10044613    7.6888926    1449795.8    1449803.6   -860.36388 
 1426000  0.099916843    7.6879029    1451354.4    1451362.2    -858.5519 
 1426500   0.10093949    7.6888395      1452849    1452856.7   -857.86129 
 1427000   0.10097662    7.6891613    1453760.1    1453767.8   -860.96782 
 1427500   0.10030714    7.6895252    1455267.1    1455274.9   -861.08731 
 1428000    0.1005976    7.6898168    1456340.9    1456348.7   -861.91262 
 1428500   0.10026019    7.6904757    1458044.2      1458052   -862.40203 
 1429000   0.10088849    7.6923771    1459197.9    1459205.6   -857.64506 
 1429500   0.10035413    7.6919232    1462500.5    1462508.3   -862.00866 
 1430000   0.10050222    7.6912266    1462500.5    1462508.3   -861.78389 
 1430500   0.10047455    7.6909915    1465382.1    1465389.8   -859.13746 
 1431000   0.10031093    7.6903803    1469499.1    1469506.9   -859.06152 
 1431500  0.099851175    7.6894177      1473181    1473188.8   -860.66226 
 1432000   0.10018877    7.6911466    1473181.1    1473188.9   -861.38519 
 1432500   0.10013465     7.690496    1477574.7    1477582.4   -862.64391 
 1433000   0.10048756    7.6897243    1480818.2      1480826    -860.4836 
 1433500   0.10008038    7.6906988    1483913.3      1483921   -861.56227 
 1434000   0.10062911    7.6909393    1484510.7    1484518.5   -860.76709 
 1434500    0.1003035    7.6912193    1485579.4    1485587.1   -861.17037 
 1435000   0.10036105    7.6912886    1489194.2    1489201.9   -860.66041 
 1435500   0.10001811    7.6913395    1489753.7    1489761.4   -858.45933 
 1436000   0.10011699    7.6920176    1488697.6    1488705.3   -859.42205 
 1436500    0.1004138    7.6932716    1490255.6    1490263.4   -860.71322 
 1437000   0.10054355    7.6922878    1489963.3    1489971.1   -859.23501 
 1437500   0.10026077    7.6937736    1489963.3      1489971    -857.1393 
 1438000   0.10038537    7.6952263    1485305.1    1485312.9   -859.38314 
 1438500    0.1002484     7.694161    1482915.7    1482923.5   -860.63693 
 1439000  0.099920841    7.6941719    1482602.8    1482610.5   -861.70401 
 1439500   0.10005876    7.6937973    1483652.5    1483660.2   -860.69964 
 1440000   0.10016629    7.6945975    1482683.2    1482690.9   -860.07813 
 1440500    0.1003337    7.6935604    1482683.3      1482691   -860.49394 
 1441000   0.10026296    7.6962274      1480730    1480737.8   -858.71033 
 1441500   0.10048657    7.6937597    1478607.7    1478615.4   -860.95676 
 1442000   0.10051681    7.6948549    1476545.5    1476553.2   -861.38145 
 1442500   0.10007376    7.6946289    1474146.5    1474154.3   -861.64452 
 1443000   0.10059589    7.6938511    1473512.6    1473520.4   -860.43719 
 1443500   0.10029454    7.6932158    1473512.5    1473520.2   -860.55361 
 1444000   0.10039501    7.6947343    1472700.5    1472708.3   -861.12322 
 1444500   0.10058247    7.6952374      1471929    1471936.8   -860.59404 
 1445000   0.10072358    7.6950568    1469187.9    1469195.7   -858.28134 
 1445500   0.10038893    7.6952221    1466705.8    1466713.5   -862.03195 
 1446000    0.1002875    7.6948094    1466705.8    1466713.5   -860.42508 
 1446500   0.10040323    7.6953343    1461084.8    1461092.5   -863.07309 
 1447000   0.10038047    7.6961343    1459969.2      1459977   -859.90232 
 1447500    0.1004009     7.694838    1456883.9    1456891.7   -859.95307 
 1448000   0.10024029    7.6949658    1456883.8    1456891.6   -860.70406 
 1448500   0.10028799    7.6955423    1456313.4    1456321.1   -861.74072 
 1449000   0.10067007    7.6938198    1453019.5    1453027.3   -862.28028 
 1449500   0.10012193    7.6952786    1449739.4    1449747.2   -862.05281 
 1450000   0.10050206    7.6953265    1447832.6    1447840.3   -860.69122 
 1450500   0.10035125    7.6932637    1447832.5    1447840.3   -862.00694 
 1451000   0.10069193    7.6924484    1446375.1    1446382.9   -859.73745 
 1451500    0.1007092    7.6948509    1445828.1    1445835.9   -863.05443 
 1452000   0.10010843    7.6934991    1445408.9    1445416.7   -859.46195 
 1452500   0.10037909    7.6931047    1446685.4    1446693.1   -861.39854 
 1453000   0.10084306    7.6952051    1446685.3    1446693.1   -861.09751 
 1453500   0.10009026     7.695566    1447940.7    1447948.5   -860.19637 
 1454000   0.10029539    7.6950942    1447389.6    1447397.3    -863.3307 
 1454500    0.1000347    7.6931066    1449513.4    1449521.1   -860.99235 
 1455000   0.10032461    7.6939292    1448008.1    1448015.9    -858.3462 
 1455500    0.1005715    7.6938876    1448008.3      1448016   -860.08964 
 1456000   0.10066251    7.6951821    1448883.8    1448891.6   -859.82807 
 1456500   0.10051883    7.6968162    1448832.7    1448840.5   -859.81895 
 1457000   0.10036079    7.6953565    1447047.1    1447054.9     -858.462 
 1457500   0.10022293    7.6945075    1445406.4    1445414.2   -860.09527 
 1458000   0.10085569     7.695265    1445406.4    1445414.2    -859.4233 
 1458500   0.10069334    7.6961639      1446688    1446695.8   -862.69138 
 1459000   0.10051305    7.6965285    1445126.5    1445134.2   -859.39391 
 1459500   0.10033608     7.697556    1445708.5    1445716.2   -858.90069 
 1460000   0.10048226    7.6953997    1446359.5    1446367.3   -861.69241 
 1460500    0.1004886    7.6960526    1446359.5    1446367.3   -858.98477 
 1461000   0.10050805     7.695244    1446283.1    1446290.9   -858.88131 
 1461500   0.10021719    7.6946317    1448374.3    1448382.1   -861.19018 
 1462000   0.10036947    7.6940448    1447507.8    1447515.5   -860.88965 
 1462500   0.10052574    7.6960297    1447684.6    1447692.3   -860.64178 
 1463000   0.10051643    7.6958956    1447566.9    1447574.7   -859.57717 
 1463500   0.10037154    7.6967016    1447391.5    1447399.3   -861.58814 
 1464000   0.10013494    7.6945527    1448452.4    1448460.2   -858.38337 
 1464500   0.10068845    7.6936645    1448452.4    1448460.1   -859.98473 
 1465000   0.10047081    7.6939855    1447163.3    1447171.1   -858.62824 
 1465500   0.10078489    7.6923974    1446675.9    1446683.7   -861.14282 
 1466000   0.10040825    7.6923465    1447382.4    1447390.2   -860.45286 
 1466500   0.10026966    7.6928783    1446740.6    1446748.3   -861.99581 
 1467000   0.10020213    7.6911366    1446740.6    1446748.4   -861.56261 
 1467500   0.10028576    7.6919448    1447220.7    1447228.4   -859.31428 
 1468000  0.099811899    7.6910813    1446804.1    1446811.9   -860.59167 
 1468500   0.10058522    7.6916994      1449503    1449510.8   -858.98779 
 1469000   0.10075465    7.6922899    1450742.5    1450750.2   -860.14129 
 1469500   0.10043207    7.6927229    1451518.3    1451526.1   -860.09168 
 1470000   0.10018035    7.6921993    1450924.2      1450932   -860.70468 
 1470500   0.10023652     7.692175    1450694.4    1450702.1   -860.58449 
 1471000   0.10044125    7.6930696    1452570.4    1452578.1   -859.45314 
 1471500   0.10023886    7.6938274    1452459.2    1452466.9   -859.65797 
 1472000   0.10042509     7.693917    1453820.2      1453828   -857.45005 
 1472500   0.10045226    7.6928334    1453890.9    1453898.7   -860.24427 
 1473000   0.09981597    7.6923472    1453668.9    1453676.7   -861.76969 
 1473500   0.10071379    7.6923046    1456045.3    1456053.1   -861.46067 
 1474000   0.10020045    7.6923921    1461197.7    1461205.5   -860.39169 
 1474500   0.10022872    7.6933588    1461197.7    1461205.5   -859.82411 
 1475000   0.10025406    7.6935027    1463002.5    1463010.3   -859.48492 
 1475500   0.10023626    7.6942447    1466868.9    1466876.6   -860.14763 
 1476000  0.099555071    7.6931991    1468455.4    1468463.1   -859.47602 
 1476500   0.10028297    7.6951783      1470968    1470975.8    -860.0975 
 1477000   0.10013615    7.6952228    1470968.1    1470975.8   -859.33128 
 1477500   0.10043355     7.695279    1472166.2      1472174   -860.66966 
 1478000  0.099998093    7.6937435    1474647.8    1474655.5   -859.98032 
 1478500    0.1000658    7.6930561    1477764.6    1477772.4   -858.58223 
 1479000   0.10011508    7.6935988    1480306.1    1480313.9   -859.57558 
 1479500   0.10021847     7.694703    1480358.2    1480365.9   -861.51341 
 1480000   0.10045436    7.6953054    1481733.7    1481741.5   -860.83005 
 1480500    0.1002108    7.6966553    1485229.6    1485237.3    -860.1761 
 1481000   0.10051794    7.6967829    1488983.6    1488991.4   -861.98297 
 1481500   0.10049821    7.6982048    1488983.7    1488991.5    -860.2594 
 1482000   0.10072115    7.6974465    1491855.8    1491863.6    -860.5551 
 1482500    0.1002947    7.7011567    1497667.8    1497675.6   -860.53623 
 1483000   0.10021924    7.6982045    1498947.5    1498955.3   -857.61083 
 1483500   0.10031648     7.698111    1498947.6    1498955.3   -860.15487 
 1484000   0.10044374    7.6973579    1502924.3      1502932   -857.93147 
 1484500   0.10028213    7.6951219    1502753.1    1502760.8   -861.33377 
 1485000   0.10060326    7.6945711    1505409.5    1505417.3   -857.87279 
 1485500   0.10081253    7.6937231    1505409.6    1505417.3   -860.69263 
 1486000  0.099883876    7.6941287    1506266.2    1506273.9   -861.03597 
 1486500   0.10009123    7.6942277    1509880.1    1509887.8   -862.25043 
 1487000   0.10040259    7.6957541    1511881.9    1511889.6   -860.66198 
 1487500   0.10054768    7.6946177    1511881.9    1511889.7   -860.77969 
 1488000     0.100452    7.6937734    1512776.3      1512784   -858.81681 
 1488500    0.1005802    7.6947377      1519181    1519188.7   -858.32397 
 1489000   0.10038315    7.6939098    1519958.9    1519966.7   -860.44863 
 1489500   0.10041734    7.6936931    1521049.8    1521057.5   -860.62384 
 1490000     0.100245    7.6923573    1522467.1    1522474.8   -859.79565 
 1490500   0.10041543    7.6938221    1519705.1    1519712.9    -862.2198 
 1491000   0.10042856    7.6918266    1521000.6    1521008.3   -861.58514 
 1491500   0.10056506    7.6927927    1521000.5    1521008.3   -859.89329 
 1492000  0.099871006    7.6929157    1520698.5    1520706.3    -862.5912 
 1492500   0.10082581    7.6919049    1518694.4    1518702.2   -859.69446 
 1493000   0.10031949    7.6924775    1520168.9    1520176.7    -861.3134 
 1493500   0.10037016    7.6909011      1520760    1520767.8   -862.21794 
 1494000   0.10051267    7.6932629    1518854.7    1518862.5   -861.43588 
 1494500    0.1002314     7.693346    1518854.9    1518862.6   -860.20996 
 1495000   0.10051325    7.6942093    1519462.4    1519470.1   -862.73895 
 1495500   0.10033339    7.6935973    1515652.1    1515659.8   -862.10169 
 1496000   0.10058148    7.6923029    1512488.3      1512496   -859.27583 
 1496500   0.10047658    7.6922283      1510632    1510639.8   -860.23077 
 1497000   0.10054061    7.6925702      1504923    1504930.8   -858.48754 
 1497500   0.10093858    7.6930951    1501356.1    1501363.8   -860.55825 
 1498000   0.10014874    7.6948707    1501355.9    1501363.7   -860.61135 
 1498500   0.10008817    7.6936622    1495727.6    1495735.3   -862.48519 
 1499000   0.10041031    7.6938313    1495727.4    1495735.2   -862.37601 
 1499500   0.10000528    7.6934588    1493050.9    1493058.7   -862.06324 
 1500000   0.10025596    7.6934451    1486065.1    1486072.9    -860.6385 
 1500500   0.10031912    7.6925464    1486065.2    1486072.9   -862.88692 
 1501000   0.10022791    7.6929738    1482992.4    1483000.1   -860.75681 
 1501500   0.10009653    7.6927908      1479327    1479334.7    -860.3219 
 1502000   0.10034553    7.6944697    1478396.9    1478404.6   -859.29513 
 1502500   0.10022505    7.6926677    1472926.3    1472934.1   -858.97415 
 1503000   0.10028756    7.6914528    1467409.2    1467416.9   -859.36743 
 1503500   0.10050162    7.6908272    1465034.4    1465042.2    -861.8433 
 1504000   0.10034966    7.6902319    1460154.5    1460162.2   -861.52287 
 1504500   0.10073189    7.6886644    1460154.4    1460162.2   -860.06447 
 1505000   0.10066145    7.6885533    1455984.2      1455992   -859.74564 
 1505500    0.1005846    7.6885752    1449931.8    1449939.6   -860.30712 
 1506000    0.1006906    7.6895978    1446072.9    1446080.7   -860.10158 
 1506500   0.10041877    7.6875514    1440769.5    1440777.2   -858.65441 
 1507000   0.10036399    7.6868559    1438724.8    1438732.5    -861.4114 
 1507500   0.10040091    7.6873485    1434491.1    1434498.9   -858.10581 
 1508000   0.10047174    7.6858935    1432023.8    1432031.5   -859.15693 
 1508500   0.10059098    7.6865371    1430651.4    1430659.1   -862.06164 
 1509000    0.1002905    7.6858991    1429718.6    1429726.3   -861.10394 
 1509500   0.10013016    7.6862531    1426935.3      1426943    -859.7565 
 1510000     0.100501    7.6857262      1426346    1426353.7   -860.27813 
 1510500   0.10028394    7.6847264    1426345.9    1426353.7   -860.26537 
 1511000  0.099945608    7.6842781      1424613    1424620.8   -860.73819 
 1511500   0.10078188    7.6812381    1422513.4    1422521.1   -861.06585 
 1512000    0.1005501    7.6812538    1420189.4    1420197.1   -860.56927 
 1512500    0.1003722     7.682105    1418655.1    1418662.9     -859.486 
 1513000   0.10028304    7.6818925    1418655.1    1418662.8   -860.11044 
 1513500   0.10032493     7.680273      1417615    1417622.7   -861.57871 
 1514000   0.10043624    7.6806257      1417615    1417622.8   -862.28672 
 1514500   0.10049351    7.6818985    1416565.7    1416573.5   -860.28014 
 1515000   0.10053899    7.6804535    1416048.1    1416055.8   -859.36629 
 1515500   0.10108726    7.6799772    1415977.6    1415985.4   -860.64952 
 1516000    0.1003848    7.6787354    1416129.6    1416137.4   -858.70886 
 1516500   0.10019218    7.6781156    1416965.8    1416973.6   -858.97309 
 1517000   0.10036994    7.6765558    1418881.1    1418888.9   -858.05295 
 1517500   0.10032763    7.6753937    1421822.8    1421830.5   -858.34817 
 1518000   0.10053075    7.6777923      1422982    1422989.8   -863.23178 
 1518500   0.10041609    7.6769393    1424911.8    1424919.6    -860.9596 
 1519000   0.10024473    7.6764665    1428175.1    1428182.9   -857.84558 
 1519500   0.10026161    7.6763169    1432526.8    1432534.6   -862.34786 
 1520000   0.10018661    7.6749707    1432526.8    1432534.5   -861.98408 
 1520500   0.10037504    7.6743794    1435717.7    1435725.4    -856.8637 
 1521000  0.099906158    7.6739866    1439256.8    1439264.6    -860.7895 
 1521500   0.10044589    7.6725871      1441818    1441825.8   -859.85202 
 1522000   0.10033502    7.6749838    1444588.1    1444595.8   -859.82283 
 1522500   0.10035349    7.6745993    1444588.1    1444595.8   -859.07454 
 1523000   0.10035155    7.6759511    1446503.9    1446511.6   -859.34348 
 1523500   0.10045587    7.6758268      1449371    1449378.7   -859.84869 
 1524000   0.10000848    7.6751582    1451000.1    1451007.8   -861.72901 
 1524500   0.10061694    7.6757003    1453614.5    1453622.3   -862.08502 
 1525000   0.10053693    7.6746778    1456690.3    1456698.1   -859.55818 
 1525500   0.10013507    7.6744561    1457331.3      1457339   -857.71164 
 1526000  0.099790932    7.6747365    1457331.3      1457339   -861.10564 
 1526500   0.10006686    7.6767938      1460084    1460091.8   -863.08125 
 1527000   0.10021001    7.6761854    1460004.5    1460012.2   -860.74679 
 1527500   0.10053978    7.6767506    1462779.3    1462787.1   -858.55142 
 1528000   0.10008171    7.6763892    1465435.7    1465443.4   -859.97725 
 1528500   0.10061851     7.676209    1467473.6    1467481.3   -861.91727 
 1529000   0.10035491    7.6769187    1471150.9    1471158.7   -858.87973 
 1529500   0.10004582      7.67728    1472513.4    1472521.1   -859.58899 
 1530000   0.10076713    7.6770518    1472513.4    1472521.1   -860.55465 
 1530500   0.10093101     7.676517    1475893.6    1475901.4   -860.16926 
 1531000   0.10039916    7.6764161    1478250.3    1478258.1   -860.45883 
 1531500   0.10017845    7.6747557    1479091.3      1479099   -860.21991 
 1532000   0.10063445    7.6745261    1479091.2      1479099   -860.43434 
 1532500   0.10046973    7.6761995    1478871.1    1478878.8   -861.77878 
 1533000   0.10106643    7.6743145    1479610.9    1479618.6   -858.82697 
 1533500    0.1003126    7.6754387    1479610.9    1479618.7   -859.79372 
 1534000   0.10059364    7.6756351    1481281.2    1481288.9   -861.14933 
 1534500   0.10037089    7.6745257    1481477.8    1481485.5   -861.15467 
 1535000   0.10061184    7.6764027    1483529.6    1483537.4   -859.41615 
 1535500   0.10023346    7.6749272    1483529.6    1483537.4    -861.6635 
 1536000   0.10035174     7.674908    1482196.5    1482204.3   -862.36702 
 1536500   0.10028807    7.6757083    1481471.9    1481479.7   -859.84499 
 1537000   0.10095852     7.673636    1482584.7    1482592.5   -860.67891 
 1537500   0.10061561     7.673153    1482584.7    1482592.4   -859.05277 
 1538000   0.10084972      7.67176    1483476.5    1483484.3   -860.70458 
 1538500   0.10057131    7.6708249      1484559    1484566.7   -863.46081 
 1539000   0.10013076    7.6693328    1483497.6    1483505.3   -859.86461 
 1539500   0.10074456    7.6699965    1483497.4    1483505.2     -858.969 
 1540000   0.10052147    7.6714609      1485773    1485780.8   -860.92354 
 1540500   0.10021742    7.6718117    1487776.1    1487783.9   -859.17135 
 1541000   0.10039596    7.6726109      1488131    1488138.8   -863.39637 
 1541500    0.1002001    7.6723488    1488131.1    1488138.8   -862.47378 
 1542000   0.10058004    7.6727959    1485421.3      1485429   -863.54404 
 1542500   0.10048688    7.6745249    1484879.6    1484887.4   -862.73219 
 1543000   0.10033758    7.6732796    1482313.8    1482321.6   -859.23071 
 1543500   0.10009539    7.6721756    1482193.5    1482201.2   -859.01313 
 1544000   0.10044062    7.6729423    1482193.6    1482201.3   -862.00724 
 1544500   0.10041578    7.6734113    1478565.3      1478573   -859.18832 
 1545000  0.099901486    7.6756698    1475007.5    1475015.3   -861.86818 
 1545500     0.100448    7.6766364    1472491.2    1472498.9   -864.25164 
 1546000   0.10013505    7.6765067    1472491.2    1472498.9   -858.95921 
 1546500   0.10069873    7.6761752    1470252.8    1470260.6   -860.89928 
 1547000   0.10041949    7.6781179    1467737.5    1467745.2   -862.05679 
 1547500    0.1005548     7.678233    1467727.9    1467735.6   -859.69933 
 1548000   0.10062947    7.6799128    1464384.6    1464392.4   -859.98563 
 1548500   0.10080678      7.67966    1464384.5    1464392.3   -858.72754 
 1549000  0.099919635    7.6808199    1459494.7    1459502.5   -861.79683 
 1549500   0.10026922    7.6819255    1457498.7    1457506.5    -862.3971 
 1550000   0.10021574    7.6819075    1454127.9    1454135.7   -861.30873 
 1550500   0.10068571    7.6833712    1454127.8    1454135.6   -863.05127 
 1551000   0.10044572    7.6842271    1451538.8    1451546.5   -862.17363 
 1551500   0.10063586    7.6840584    1449481.1    1449488.8   -862.74567 
 1552000   0.10087259    7.6858206    1448748.4    1448756.2   -860.92453 
 1552500   0.10029652    7.6861274    1446750.6    1446758.3   -859.42245 
 1553000   0.10036111    7.6869402    1446865.1    1446872.8   -861.26529 
 1553500   0.10031068     7.687559    1445185.7    1445193.4   -858.15706 
 1554000   0.10031553    7.6890506    1445185.6    1445193.3   -860.28342 
 1554500  0.099852806    7.6916579    1440007.6    1440015.4   -863.51449 
 1555000   0.10036761    7.6908975    1440007.7    1440015.4   -860.14477 
 1555500   0.10022627    7.6913624    1438444.3    1438452.1   -858.57325 
 1556000   0.10011315     7.691966    1436701.3      1436709   -860.01415 
 1556500   0.10015974    7.6940853    1434562.2      1434570   -860.51604 
 1557000   0.10057034    7.6944172      1432778    1432785.7   -860.66591 
 1557500   0.10014572    7.6943745    1432777.9    1432785.7    -857.6745 
 1558000   0.10017444    7.6938966    1432186.9    1432194.7   -860.77245 
 1558500   0.10059114    7.6949824    1432174.3    1432182.1   -862.16489 
 1559000      0.10035    7.6937847      1431321    1431328.7    -859.6099 
 1559500   0.10018464    7.6942432    1429754.5    1429762.3   -861.46455 
 1560000   0.10045397    7.6942522    1429754.5    1429762.3   -859.36782 
 1560500   0.10053215    7.6948099    1428729.9    1428737.6   -861.14347 
 1561000   0.10049951    7.6940544    1429652.4    1429660.1   -860.73521 
 1561500   0.10008244    7.6947974    1428484.4    1428492.2    -860.2147 
 1562000   0.10041011    7.6945708    1428484.4    1428492.2   -862.91253 
 1562500  0.099802942    7.6954911    1429315.8    1429323.5   -863.07532 
 1563000   0.10070514    7.6964149    1429508.5    1429516.3   -861.53012 
 1563500   0.10020276    7.6960463    1428547.6    1428555.3   -860.07983 
 1564000   0.10059422     7.697767    1427533.8    1427541.6   -863.08443 
 1564500   0.10024834    7.6975461    1427533.8    1427541.5    -860.8614 
 1565000   0.10044285    7.6982983    1426541.5    1426549.3   -860.98009 
 1565500   0.10038005    7.6988932    1426440.7    1426448.4   -861.05029 
 1566000   0.10029439    7.6993436    1424450.9    1424458.7   -861.52261 
 1566500   0.10068493    7.6985857    1423476.2      1423484   -861.89346 
 1567000   0.10015692    7.6995949    1423476.2      1423484   -860.44051 
 1567500   0.10033005    7.6996277    1421231.1    1421238.9   -859.60749 
 1568000   0.10043909     7.699746    1419599.7    1419607.5   -860.19397 
 1568500   0.10018419    7.6994134    1418380.9    1418388.7   -859.86889 
 1569000   0.10048094    7.7009985    1417661.3    1417669.1   -859.50223 
 1569500   0.10046511    7.7022171    1417661.3      1417669   -860.07627 
 1570000   0.10029118    7.7016153    1417380.9    1417388.7   -860.52858 
 1570500   0.10037914    7.7034015    1417487.1    1417494.9   -861.42041 
 1571000   0.10048082    7.7028058    1417901.5    1417909.3    -858.8183 
 1571500    0.1000528      7.70218    1417901.6    1417909.3   -858.27319 
 1572000   0.10048598    7.7038615    1416840.3    1416848.1   -860.79001 
 1572500   0.10061225    7.7039012    1417010.6    1417018.4   -860.35376 
 1573000   0.10061474    7.7034807    1417037.6    1417045.4   -859.90541 
 1573500   0.10014342    7.7037735    1416415.4    1416423.2   -861.69736 
 1574000   0.10074995    7.7047592    1415419.1    1415426.9   -861.24961 
 1574500   0.10042576    7.7053283    1415419.2      1415427   -860.10069 
 1575000   0.10044796    7.7061555    1415586.6    1415594.4    -861.8326 
 1575500   0.10031938    7.7045484    1414937.4    1414945.2   -860.50195 
 1576000   0.10041683    7.7063303    1415983.7    1415991.5   -859.92481 
 1576500   0.10003689    7.7060538    1413985.5    1413993.3   -859.99483 
 1577000   0.10037426    7.7066613    1413985.5    1413993.3   -860.93539 
 1577500   0.10040592    7.7073773    1414444.2      1414452   -859.93068 
 1578000   0.10053501    7.7079915    1414346.4    1414354.2   -860.03772 
 1578500   0.10029108    7.7084942    1415612.4    1415620.2   -859.28199 
 1579000   0.10016951    7.7079364    1416825.2      1416833   -860.18535 
 1579500   0.10031867    7.7092808    1416927.7    1416935.5   -858.24158 
 1580000   0.10043507    7.7096554      1416837    1416844.8   -859.81048 
 1580500   0.10026974    7.7108261      1416837    1416844.8   -861.18779 
 1581000   0.10025963    7.7105722    1416658.9    1416666.7   -861.31935 
 1581500   0.10022262    7.7113817    1416867.2      1416875   -861.07378 
 1582000   0.10036617    7.7125814    1417950.4    1417958.2   -860.20602 
 1582500   0.10005816    7.7145888    1418890.6    1418898.4   -860.49446 
 1583000   0.10056869    7.7136549    1418890.7    1418898.5   -861.38666 
 1583500   0.10026473     7.714843    1421296.3    1421304.1   -861.80436 
 1584000   0.10036898    7.7156349    1421799.6    1421807.4   -860.01635 
 1584500   0.10002348    7.7160749    1424588.4    1424596.2    -862.2682 
 1585000    0.1003244    7.7158586    1426847.6    1426855.4   -857.67431 
 1585500   0.10046539    7.7156366    1429252.2      1429260   -860.69711 
 1586000   0.10036903    7.7162908    1428255.3    1428263.1   -859.15981 
 1586500   0.10002221    7.7157931    1429146.1    1429153.9   -860.12535 
 1587000    0.1002394    7.7159882    1429146.1    1429153.9   -860.53723 
 1587500   0.10016706    7.7159728    1432329.5    1432337.3    -864.4813 
 1588000   0.10052421    7.7179138    1434492.1    1434499.9   -860.79784 
 1588500   0.10045731    7.7184056    1436264.5    1436272.3   -861.56487 
 1589000   0.10022003    7.7188732      1439006    1439013.8   -863.58956 
 1589500   0.10082814    7.7176625      1439006    1439013.8   -860.27168 
 1590000   0.10011772    7.7195652    1439919.1    1439926.9   -861.75112 
 1590500   0.10012719    7.7195658    1441104.7    1441112.5   -859.70362 
 1591000   0.10028607    7.7192868    1440996.9    1441004.6   -860.24286 
 1591500   0.10057011    7.7195703    1441397.1    1441404.9   -860.55911 
 1592000   0.10027794     7.721177    1441397.2      1441405   -861.19142 
 1592500   0.10020565    7.7211852    1442028.4    1442036.2   -862.26491 
 1593000   0.10051353    7.7206904    1442276.6    1442284.4   -860.21146 
 1593500   0.10011749    7.7205898    1444592.8    1444600.6   -859.62079 
 1594000   0.10023537    7.7205317    1444860.8    1444868.6   -861.17825 
 1594500   0.10045214    7.7216798    1444860.9    1444868.7   -859.76239 
 1595000   0.10030504    7.7202414    1445545.7    1445553.5   -860.54519 
 1595500   0.10050414    7.7198239    1445250.1    1445257.9   -861.13987 
 1596000    0.1002406    7.7210055    1445250.3    1445258.1   -860.72014 
 1596500   0.10035674    7.7219528    1445659.4    1445667.2   -859.31001 
 1597000    0.1004134    7.7206137    1445076.9    1445084.7   -860.82263 
 1597500   0.10019344     7.721101    1444735.2    1444742.9   -862.43174 
 1598000  0.099985504    7.7199789    1446602.9    1446610.7   -860.44492 
 1598500   0.10003398    7.7187376    1446603.1    1446610.9   -857.77245 
 1599000   0.10003923    7.7186686    1446930.4    1446938.2   -862.64442 
 1599500   0.10009588    7.7196344    1448861.8    1448869.6   -861.61986 
 1600000   0.10031427    7.7220388    1447935.9    1447943.7   -861.81729 
 1600500   0.10063112      7.72151    1447935.9    1447943.7   -860.15843 
 1601000   0.10064184    7.7203525    1447056.8    1447064.6   -859.71052 
 1601500   0.10032738    7.7213493    1447845.6    1447853.4   -857.56444 
 1602000   0.10025779    7.7224476    1446973.5    1446981.3   -859.85835 
 1602500   0.10024942    7.7219869    1446973.5    1446981.3   -859.19582 
 1603000   0.10025357    7.7225374    1447204.9    1447212.7   -860.26032 
 1603500   0.10019278    7.7235792    1448686.7    1448694.5   -861.34905 
 1604000  0.099933004    7.7236759    1447545.2      1447553   -860.01314 
 1604500   0.10047895    7.7230782    1447545.3    1447553.1   -860.98945 
 1605000   0.10011288    7.7230721    1446691.6    1446699.4   -861.08661 
 1605500   0.09996655    7.7229589      1446467    1446474.8    -858.4616 
 1606000   0.10058518    7.7239205    1447152.7    1447160.5   -860.92524 
 1606500   0.10038524    7.7263768      1446176    1446183.8   -861.77333 
 1607000   0.10035323    7.7262839      1446176    1446183.8   -861.10503 
 1607500   0.10053996    7.7255179      1447701    1447708.8   -861.57443 
 1608000   0.10022208    7.7252371    1447701.2    1447708.9   -861.78283 
 1608500   0.10007758    7.7262782    1445314.3    1445322.1   -861.63606 
 1609000   0.10077316    7.7247081    1447310.8    1447318.6   -859.52361 
 1609500   0.10017633    7.7253054    1447383.4    1447391.2   -860.33606 
 1610000   0.10011619    7.7254202    1447812.7    1447820.5   -860.66988 
 1610500   0.10010975    7.7260545    1447920.3    1447928.1   -857.94967 
 1611000   0.10028496    7.7244362    1449357.4    1449365.2   -858.62338 
 1611500    0.1002012    7.7253031    1449357.3    1449365.1   -861.07328 
 1612000   0.10028549    7.7253422    1450347.7    1450355.5   -860.33423 
 1612500   0.10047828    7.7261317    1451596.3    1451604.1   -861.29116 
 1613000   0.10049982     7.725546    1451364.7    1451372.5   -858.54922 
 1613500   0.09956166    7.7254156    1450745.3    1450753.1   -859.90139 
 1614000   0.10061903    7.7256232    1450745.3    1450753.1   -860.57778 
 1614500   0.10011667    7.7258086    1451012.1    1451019.9   -859.40169 
 1615000   0.10041665    7.7265841    1451718.9    1451726.7   -860.40792 
 1615500   0.10072621    7.7270324    1451785.8    1451793.6   -861.53432 
 1616000   0.10049369    7.7281834    1453039.3    1453047.1   -858.96308 
 1616500   0.10012914    7.7289942    1456611.8    1456619.6   -861.59251 
 1617000   0.10010471    7.7295538    1456611.8    1456619.6   -858.87283 
 1617500    0.1005221    7.7305611    1456890.6    1456898.4   -859.81881 
 1618000   0.10035533    7.7301664    1461401.6    1461409.4    -859.3063 
 1618500   0.10033788    7.7296165    1463840.6    1463848.4   -860.54174 
 1619000   0.10023915     7.731641    1463840.7    1463848.5   -858.66489 
 1619500   0.10034312    7.7320912      1465651    1465658.8   -861.97481 
 1620000   0.10091337    7.7316359    1466940.4    1466948.2   -859.41277 
 1620500   0.10023604    7.7317826    1466940.5    1466948.3   -859.66904 
 1621000   0.10071407    7.7321597      1468289    1468296.8   -859.63454 
 1621500   0.10025599    7.7317669    1470192.2      1470200   -861.13028 
 1622000   0.10048657    7.7321459      1471752    1471759.8   -862.03458 
 1622500   0.10035246    7.7316856    1473594.7    1473602.5   -861.44896 
 1623000   0.10023004    7.7294681    1474459.7    1474467.5    -861.0797 
 1623500   0.10043896    7.7285524    1476281.9    1476289.7    -859.9152 
 1624000   0.10004646    7.7281957      1476282    1476289.8   -863.07656 
 1624500   0.10020696    7.7282964    1478836.4    1478844.2   -861.86216 
 1625000   0.10014889    7.7274888    1481751.7    1481759.5   -862.04404 
 1625500    0.1005165    7.7265614    1483969.7    1483977.5   -860.01726 
 1626000   0.10018006    7.7263836    1485274.5    1485282.3   -859.50955 
 1626500   0.10031455    7.7257237    1485274.6    1485282.4   -859.84209 
 1627000   0.10039845    7.7259057    1485156.7    1485164.5   -860.65628 
 1627500   0.10036136    7.7251939    1488214.6    1488222.4   -859.15995 
 1628000   0.10029865    7.7241085      1486797    1486804.8   -860.61131 
 1628500   0.10017594    7.7250472      1489416    1489423.8   -861.81701 
 1629000    0.1005565     7.723637    1489247.6    1489255.3   -860.43824 
 1629500   0.10047327    7.7234866    1489247.5    1489255.3   -861.53149 
 1630000   0.10051578    7.7228302    1489606.1    1489613.9    -858.8209 
 1630500   0.10044508    7.7231534    1490659.1    1490666.9   -862.15742 
 1631000    0.1001744    7.7237266    1491911.5    1491919.3   -859.24754 
 1631500   0.10012755    7.7232091    1491842.4    1491850.2   -859.38786 
 1632000   0.10066079    7.7231495    1494062.2      1494070    -860.8517 
 1632500   0.10016868    7.7227077    1494179.2      1494187   -861.02834 
 1633000   0.10030679    7.7217131    1492706.4    1492714.2   -859.34772 
 1633500   0.10051879    7.7203129    1493280.5    1493288.3   -861.32091 
 1634000   0.10048548    7.7200609    1492237.6    1492245.4   -863.16905 
 1634500   0.10021016    7.7202253    1491991.8    1491999.6   -860.86566 
 1635000   0.10036176    7.7214452    1491991.8    1491999.6   -861.92151 
 1635500   0.10021611    7.7209006    1493283.5    1493291.3   -862.09204 
 1636000   0.10014505    7.7209268    1492930.5    1492938.3   -858.04833 
 1636500   0.10023077    7.7208089    1492153.2      1492161   -860.60171 
 1637000   0.10072592    7.7208373    1492685.3    1492693.1   -861.35291 
 1637500   0.10009418    7.7207822    1489836.3    1489844.1    -861.1393 
 1638000   0.10009165    7.7195961    1486261.6    1486269.3   -861.22128 
 1638500   0.10074512    7.7194425    1483970.2      1483978   -862.20805 
 1639000   0.10048695    7.7188849    1483970.1    1483977.9   -860.73144 
 1639500   0.10031786    7.7170089    1479815.6    1479823.4   -861.99289 
 1640000   0.10056973     7.716754    1476012.3    1476020.1   -860.46677 
 1640500   0.10082924    7.7165117    1474085.4    1474093.2   -859.09118 
 1641000   0.10047405    7.7185171    1472310.7    1472318.5   -861.37756 
 1641500   0.10060389    7.7167752    1471597.6    1471605.4   -859.29979 
 1642000    0.1003128     7.716742    1471597.6    1471605.4    -858.8129 
 1642500    0.1004802    7.7179231    1469979.2      1469987   -860.72346 
 1643000    0.1002879    7.7182628    1469622.7    1469630.5   -859.51575 
 1643500   0.10038941    7.7173066    1470133.6    1470141.4   -861.78898 
 1644000   0.10037259    7.7158828    1470037.3    1470045.1   -863.29569 
 1644500   0.10018229     7.716659    1470037.2      1470045   -859.59908 
 1645000   0.10032948     7.715665    1465820.5    1465828.3   -859.72847 
 1645500   0.10047497    7.7165035    1465993.8    1466001.6   -858.40827 
 1646000   0.10056822    7.7151785    1466107.1    1466114.9   -861.19257 
 1646500   0.10052493    7.7143523    1466129.6    1466137.4   -858.99763 
 1647000   0.10022588    7.7147109    1466129.6    1466137.4   -858.48773 
 1647500   0.10018429    7.7127125    1466495.7    1466503.5   -859.84298 
 1648000   0.10021149    7.7123794    1465891.2      1465899   -858.11182 
 1648500   0.10047241    7.7131484    1466118.4    1466126.2   -860.45941 
 1649000   0.10022153    7.7130056    1464176.2      1464184   -860.13688 
 1649500   0.10051666    7.7122797    1463465.2      1463473   -860.70661 
 1650000   0.10089274    7.7123602      1462491    1462498.8   -860.51364 
 1650500   0.10049166     7.712603    1461610.8    1461618.5   -862.06818 
 1651000   0.10040027    7.7123506    1460520.4    1460528.2   -861.36373 
 1651500   0.10060806    7.7124227    1458227.3    1458235.1   -858.89733 
 1652000   0.10025957    7.7104622    1458227.2      1458235   -860.03496 
 1652500   0.10017008     7.711027    1455195.9    1455203.7   -862.01841 
 1653000    0.1002585    7.7118388      1454308    1454315.8   -859.30974 
 1653500   0.10026824    7.7121319    1454605.9    1454613.6    -861.3072 
 1654000   0.10021336     7.712638    1454179.9    1454187.7   -858.97407 
 1654500   0.10037651    7.7106802    1454088.3    1454096.1    -859.6425 
 1655000   0.10014054    7.7111589    1454307.3    1454315.1   -859.27262 
 1655500   0.10015415    7.7088342    1454399.7    1454407.5   -861.05118 
 1656000   0.10048989    7.7078615    1454977.4    1454985.2   -860.30899 
 1656500   0.10067503    7.7078281    1456880.3      1456888   -860.16813 
 1657000   0.10057416    7.7068303    1456880.3    1456888.1    -861.1779 
 1657500   0.10047036    7.7054221    1457265.9    1457273.6   -859.87872 
 1658000    0.1001772    7.7047214    1455271.8    1455279.5   -859.92183 
 1658500   0.10033005    7.7041128    1455859.9    1455867.7   -858.83519 
 1659000   0.10064532    7.7046662    1456995.2      1457003   -862.91062 
 1659500   0.10043154    7.7030566    1457702.4    1457710.2   -859.74774 
 1660000   0.10026087    7.7040142    1459764.1    1459771.9   -861.40401 
 1660500   0.10046685    7.7031613    1459746.8    1459754.5   -862.22602 
 1661000   0.10016616    7.7025485    1459746.8    1459754.6   -861.70536 
 1661500   0.10045643    7.7022828    1461499.4    1461507.1   -859.53675 
 1662000    0.1001665    7.7024147    1461198.5    1461206.2   -858.05005 
 1662500   0.10055481    7.7020589    1459840.8    1459848.5   -861.89764 
 1663000   0.10050885    7.7031912    1459840.7    1459848.5   -862.19049 
 1663500   0.10045002    7.7015538      1461266    1461273.8   -859.38881 
 1664000   0.10013989    7.7027023    1462044.8    1462052.6   -861.03663 
 1664500    0.1001233    7.7019831    1462180.9    1462188.7    -859.2762 
 1665000   0.10036571    7.7042004    1461904.1    1461911.9   -859.58749 
 1665500   0.10058429    7.7050828    1463270.6    1463278.3   -858.63802 
 1666000   0.10038111    7.7037479    1464861.8    1464869.6   -860.23875 
 1666500   0.10037476    7.7037448    1465366.4    1465374.2   -860.38599 
 1667000   0.10033875    7.7040393    1465366.3    1465374.1   -860.29185 
 1667500   0.10042339    7.7037627    1464509.9    1464517.7   -861.38679 
 1668000   0.10068685    7.7029704    1461669.4    1461677.2   -861.10226 
 1668500   0.10095373     7.702292      1460655    1460662.8   -860.45065 
 1669000   0.10032232    7.7027433    1459859.5    1459867.3   -861.04072 
 1669500   0.10029919    7.7032722    1459859.4    1459867.2   -860.21589 
 1670000   0.10044373    7.7033448    1457255.7    1457263.5   -858.81518 
 1670500   0.10022789    7.7051156    1456383.2      1456391   -861.01963 
 1671000   0.10001685    7.7042536    1454111.8    1454119.6   -861.74343 
 1671500  0.099929001    7.7033739    1452565.2      1452573   -861.98461 
 1672000   0.10048294    7.7026895    1452971.5    1452979.2   -861.06959 
 1672500   0.10025161    7.7027763    1451311.8    1451319.6   -860.24049 
 1673000   0.10011728    7.7020874    1450640.2    1450647.9   -859.03235 
 1673500   0.10006597    7.7023175    1450379.2      1450387   -859.27343 
 1674000   0.10027701    7.7020095    1446574.7    1446582.5   -859.51983 
 1674500   0.10043197    7.7022356    1447726.5    1447734.3   -861.53161 
 1675000   0.10072616    7.7020032    1445866.3      1445874   -860.60209 
 1675500    0.1007055    7.7021861    1445866.3    1445874.1   -861.94034 
 1676000   0.10045108    7.7027719    1445577.3    1445585.1   -861.65131 
 1676500   0.10042419    7.7039611    1446478.7    1446486.5   -862.46208 
 1677000   0.10024444     7.703408    1445915.4    1445923.1   -862.68139 
 1677500   0.10024277    7.7023172    1445915.3    1445923.1   -858.70473 
 1678000   0.10033249    7.7032234    1448056.8    1448064.6   -861.19089 
 1678500   0.10048184    7.7027637    1445453.4    1445461.2   -861.43346 
 1679000    0.1001656    7.7023925    1445453.5    1445461.3   -859.87636 
 1679500   0.10007151    7.7037398    1443329.2    1443336.9   -862.66236 
 1680000   0.10051692    7.7042981    1443199.5    1443207.3   -859.37438 
 1680500   0.10020793    7.7026796    1440682.8    1440690.5   -861.33344 
 1681000    0.1002435    7.7038306    1440682.8    1440690.6   -860.09269 
 1681500   0.10017986    7.7035312    1440730.3    1440738.1   -859.42301 
 1682000   0.10062402    7.7023952    1441258.4    1441266.2   -859.75361 
 1682500   0.10027069    7.7018083    1441066.4    1441074.2   -858.29784 
 1683000   0.10075651    7.7015861    1441427.5    1441435.3   -858.16973 
 1683500   0.10059091    7.6997922    1442790.2      1442798   -859.74251 
 1684000   0.09989415    7.7014814    1445003.1    1445010.9   -859.67705 
 1684500   0.10008802    7.7031221      1445003    1445010.8   -859.58944 
 1685000   0.10007865    7.7022173    1446273.1    1446280.9   -862.74223 
 1685500    0.1003924      7.70298    1447279.5    1447287.3   -859.45012 
 1686000   0.10038648    7.7043377    1447287.2    1447294.9   -863.96701 
 1686500   0.10047454    7.7049093      1446211    1446218.7   -859.30763 
 1687000   0.10053969    7.7053071    1445752.7    1445760.4   -860.49299 
 1687500   0.10002815    7.7060793    1445752.7    1445760.4   -861.29221 
 1688000   0.10067621    7.7064349    1446002.4    1446010.2   -861.26399 
 1688500   0.10052402    7.7064987    1445975.6    1445983.4   -860.04524 
 1689000   0.10009672    7.7054663    1446810.4    1446818.2   -860.57682 
 1689500   0.10043032    7.7062618    1443564.3    1443572.1   -860.07464 
 1690000   0.10034799     7.705127    1443564.4    1443572.2   -860.47378 
 1690500   0.10057163    7.7050649    1443387.6    1443395.4     -862.091 
 1691000   0.10047335    7.7061365    1441252.7    1441260.5   -858.19798 
 1691500   0.10048415    7.7062352    1440879.8    1440887.6   -864.18759 
 1692000   0.10085313    7.7053404    1440137.1    1440144.9   -857.89233 
 1692500   0.10031865    7.7051514      1440137    1440144.8   -860.26275 
 1693000   0.10056612     7.705863    1439303.1    1439310.9   -859.94351 
 1693500   0.10040861    7.7065622    1440917.2    1440924.9   -860.68258 
 1694000   0.10047563    7.7060909    1441599.1    1441606.9   -858.86222 
 1694500   0.10004382    7.7041417    1441599.2      1441607    -858.9843 
 1695000   0.10059575    7.7043625    1442030.3    1442038.1   -859.91686 
 1695500   0.10041031    7.7049289    1444442.1    1444449.9   -860.84908 
 1696000   0.10056218    7.7051662    1443983.6    1443991.4    -859.1486 
 1696500   0.10043492    7.7059719    1445921.8    1445929.5   -862.51895 
 1697000   0.10006882    7.7056984    1445093.7    1445101.5   -860.48562 
 1697500   0.10085993    7.7055775    1445631.1    1445638.9   -861.52253 
 1698000   0.10097567    7.7058084    1444786.3    1444794.1   -861.78246 
 1698500   0.10057317    7.7069837    1447012.5    1447020.2   -860.57211 
 1699000   0.10067467    7.7065408    1448652.8    1448660.6     -860.236 
 1699500   0.10061312    7.7085292    1450764.7    1450772.5   -860.03565 
 1700000   0.10057686    7.7088232    1450691.9    1450699.6   -861.84299 
 1700500   0.10038506    7.7101184    1450691.8    1450699.6   -861.05301 
 1701000   0.10049438     7.709068    1451851.6    1451859.4   -859.83778 
 1701500   0.10028883    7.7082489      1451064    1451071.8   -861.02563 
 1702000   0.10058859    7.7086768    1451639.5    1451647.2   -860.20557 
 1702500   0.10052967     7.708572    1451639.4    1451647.1   -863.34845 
 1703000   0.10035298    7.7104085    1451910.8    1451918.6   -861.42506 
 1703500   0.10008835    7.7097486      1452265    1452272.8   -860.59148 
 1704000   0.10045631    7.7128774      1453305    1453312.7   -860.36581 
 1704500   0.10034679    7.7129633    1454366.5    1454374.3   -860.33467 
 1705000   0.10068635    7.7123166    1453708.7    1453716.5   -860.18146 
 1705500   0.10049854    7.7102841    1454401.4    1454409.2   -859.91136 
 1706000    0.1007271     7.710115    1454915.9    1454923.7   -859.54299 
 1706500   0.10039952    7.7096928      1456541    1456548.8   -857.87471 
 1707000   0.10049696    7.7104096    1456974.8    1456982.6   -860.24705 
 1707500     0.100274    7.7098342    1456614.1    1456621.9   -861.45698 
 1708000   0.10015133     7.709142    1456614.1    1456621.8    -859.1543 
 1708500   0.10041102     7.709748    1455950.2      1455958   -860.88244 
 1709000  0.099962933    7.7101378    1455282.4    1455290.1   -857.87178 
 1709500   0.10055884    7.7101835    1455424.4    1455432.2   -859.64073 
 1710000   0.10047434    7.7110202    1455389.8    1455397.5   -862.21993 
 1710500   0.10048345    7.7109924    1455389.8    1455397.6   -859.82895 
 1711000   0.10023122    7.7113498    1454825.7    1454833.5   -862.05153 
 1711500   0.10049252    7.7118814    1453855.6    1453863.3   -859.85719 
 1712000   0.10039702    7.7120965    1453475.6    1453483.4   -859.81651 
 1712500   0.10044914    7.7098506    1453179.7    1453187.5   -860.38738 
 1713000   0.10045817    7.7101386    1453120.6    1453128.4   -861.27074 
 1713500   0.10001925    7.7087692    1453766.9    1453774.7   -861.95645 
 1714000   0.10061337    7.7097496    1454181.3    1454189.1   -864.19718 
 1714500   0.10017244    7.7089721    1455207.6    1455215.4   -860.25349 
 1715000   0.10028908    7.7097804    1455413.7    1455421.4   -861.95684 
 1715500   0.10023382    7.7080342    1455413.7    1455421.4   -862.32872 
 1716000   0.10017471    7.7083071    1456764.2      1456772   -859.24361 
 1716500   0.10008033    7.7069646    1456602.5    1456610.3   -861.71986 
 1717000   0.10040269    7.7071806    1456602.5    1456610.2   -861.14912 
 1717500   0.10065426    7.7055525    1457486.8    1457494.6   -858.26284 
 1718000   0.10026938    7.7042802    1456456.1    1456463.9   -860.47861 
 1718500   0.10014583    7.7032486    1457457.7    1457465.4   -861.54183 
 1719000   0.10070717    7.7033573    1457457.7    1457465.4   -862.59566 
 1719500   0.10014301    7.7017557    1457330.5    1457338.3   -860.90926 
 1720000   0.10080841    7.7014741    1458928.4    1458936.2   -860.57295 
 1720500   0.10024273     7.699662    1458568.3      1458576   -859.54173 
 1721000   0.10024244    7.6991401    1458568.2      1458576   -861.89465 
 1721500   0.10032115    7.6996883    1460670.2    1460677.9   -861.21492 
 1722000   0.10055785    7.6990398    1462089.4    1462097.2    -860.1846 
 1722500   0.10005552    7.6996894    1462089.4    1462097.1   -859.97336 
 1723000   0.10042303    7.7016286    1464350.5    1464358.2   -859.20539 
 1723500   0.10053602    7.6996146    1463291.7    1463299.4   -859.28069 
 1724000   0.10050626     7.702013    1462875.9    1462883.7   -862.31907 
 1724500   0.10019461    7.7008745    1461976.3    1461984.1   -858.41252 
 1725000    0.1004591    7.7016706    1461976.4    1461984.2   -860.72037 
 1725500   0.10042845    7.7027879      1462638    1462645.8   -861.45212 
 1726000    0.1003195    7.7017969    1462038.7    1462046.5   -862.51541 
 1726500   0.10013914    7.7016175    1461820.5    1461828.2   -861.76149 
 1727000   0.10027842    7.7025364    1461281.7    1461289.4   -860.37137 
 1727500    0.1006277    7.7034464    1460262.8    1460270.6   -862.13223 
 1728000   0.10031185    7.7043678    1460262.9    1460270.7    -861.1291 
 1728500   0.10051406    7.7025331    1460402.4    1460410.2   -861.25698 
 1729000   0.10052609    7.7027618    1461924.3      1461932   -859.12505 
 1729500  0.099997819    7.7019847    1459702.4    1459710.2   -860.29389 
 1730000   0.10053449    7.7025703      1459589    1459596.8   -862.79766 
 1730500   0.10042662    7.7021251    1459589.1    1459596.9   -858.57288 
 1731000   0.10049371    7.7023441    1459187.1    1459194.9   -863.23618 
 1731500   0.10046629     7.702951    1460298.7    1460306.5   -861.92703 
 1732000   0.10047541    7.7024092    1460298.8    1460306.6   -863.76596 
 1732500   0.10052197    7.7010514    1460416.3    1460424.1    -862.3228 
 1733000   0.10032941    7.7016331    1460743.4    1460751.2   -859.49906 
 1733500   0.10067618    7.7032641    1464212.5    1464220.2   -862.51015 
 1734000    0.1007966    7.7038564      1466230    1466237.8   -860.30488 
 1734500   0.10071101    7.7035144    1466230.1    1466237.8   -860.10542 
 1735000    0.1006039    7.7023224    1466885.2      1466893   -861.46467 
 1735500   0.10032091    7.7026397    1467142.5    1467150.3   -862.33216 
 1736000    0.1008122    7.7015855    1468936.7    1468944.5   -858.89359 
 1736500   0.10015343    7.7017421    1468936.7    1468944.5   -861.01999 
 1737000   0.10077971    7.7025466    1468364.8    1468372.6   -861.79827 
 1737500   0.10039478    7.7038351    1468692.1    1468699.8   -860.00779 
 1738000   0.10027904    7.7029945    1467135.2      1467143   -861.50473 
 1738500   0.10043361    7.7027865    1467135.2      1467143   -860.84276 
 1739000   0.10067849    7.7038349      1467577    1467584.7   -861.48149 
 1739500   0.10073414    7.7038928    1467682.9    1467690.7   -861.93339 
 1740000   0.10056057    7.7037784    1469228.9    1469236.7   -859.58873 
 1740500   0.10032626    7.7044843    1466823.3    1466831.1   -859.31574 
 1741000   0.10072484    7.7039457    1465832.1    1465839.8   -862.00156 
 1741500   0.10046609    7.7036308    1465832.2    1465839.9   -861.83509 
 1742000   0.10055607    7.7020074    1466095.9    1466103.6   -859.48865 
 1742500  0.099956866      7.70279    1463295.6    1463303.4   -858.34955 
 1743000   0.10095944    7.7030215    1461589.3    1461597.1   -859.66404 
 1743500   0.10061866    7.7030234    1461272.5    1461280.3   -857.30867 
 1744000   0.10101959    7.7040299    1459877.5    1459885.3   -861.62981 
 1744500    0.1002313    7.7035976    1458545.3      1458553   -860.84963 
 1745000   0.10075834    7.7038804      1457671    1457678.8   -858.64822 
 1745500   0.10080711     7.704536    1457670.9    1457678.7   -860.81963 
 1746000    0.1007238    7.7043787    1456300.4    1456308.2   -860.37297 
 1746500   0.10025978    7.7049454      1455967    1455974.8   -858.72814 
 1747000   0.10023168    7.7048783    1452890.9    1452898.7   -859.03572 
 1747500    0.1001903    7.7058642    1452890.9    1452898.6   -857.88761 
 1748000   0.10052947    7.7067578    1451874.2      1451882   -859.26612 
 1748500   0.10039082    7.7068739    1453038.6    1453046.3   -860.91061 
 1749000   0.10076422     7.707142    1456672.2      1456680   -859.67826 
 1749500   0.10043438    7.7068773    1458077.6    1458085.4   -860.95451 
 1750000   0.10010183    7.7069775    1460645.7    1460653.5   -861.64421 
 1750500   0.10048271    7.7075125    1460645.6    1460653.4   -859.81432 
 1751000   0.10044985    7.7088523    1462725.3    1462733.1   -862.46169 
 1751500   0.10051118    7.7083528    1464244.9    1464252.7     -861.418 
 1752000   0.10036413    7.7093069    1466239.6    1466247.3   -860.27011 
 1752500   0.10070873     7.709099      1468670    1468677.7   -860.62603 
 1753000   0.10020216    7.7085944    1468669.8    1468677.6   -861.10166 
 1753500   0.10083529    7.7090766    1469890.6    1469898.4   -859.29342 
 1754000   0.10069621       7.7095    1471577.7    1471585.5   -859.41555 
 1754500   0.10047066    7.7091742    1475133.9    1475141.7   -859.82534 
 1755000   0.10064711    7.7090244    1475133.9    1475141.6   -859.24579 
 1755500   0.10044631    7.7108278    1476452.1    1476459.9    -861.3021 
 1756000   0.10050266    7.7115352    1477519.2      1477527   -861.47681 
 1756500    0.1006952    7.7123288    1481824.1    1481831.9   -860.37851 
 1757000   0.10061259    7.7137398    1482992.7    1483000.5   -860.63244 
 1757500   0.10069725    7.7144096    1483482.9    1483490.7   -863.14249 
 1758000   0.10022886    7.7144958    1487501.1    1487508.9   -859.27289 
 1758500   0.10064536    7.7155333      1487501    1487508.8   -859.97586 
 1759000    0.1007412    7.7150735    1486514.1    1486521.9   -859.94633 
 1759500   0.10082954     7.716481    1487630.1    1487637.9   -861.93133 
 1760000   0.10071986    7.7177807      1488597    1488604.8   -861.51697 
 1760500   0.10108982    7.7191048    1490319.1    1490326.9   -859.24483 
 1761000   0.10037318     7.721325    1492093.6    1492101.4    -862.0466 
 1761500   0.10032881    7.7226617    1494269.9    1494277.7   -862.36741 
 1762000   0.10062949    7.7230218    1495638.8    1495646.6   -857.88971 
 1762500   0.10044208     7.723092      1499676    1499683.8   -859.63966 
 1763000   0.10076624     7.724359    1501282.8    1501290.6   -860.57879 
 1763500   0.10061556    7.7258181    1502515.7    1502523.5   -860.42703 
 1764000   0.10078838    7.7272762    1502851.5    1502859.3   -860.88329 
 1764500  0.099882831    7.7287518    1504158.9    1504166.7   -859.27648 
 1765000   0.10084759    7.7297194    1504307.6    1504315.4   -860.24796 
 1765500   0.10047835    7.7311698    1504307.7    1504315.5   -861.15556 
 1766000    0.1006367    7.7324062    1505947.3    1505955.1   -860.54958 
 1766500    0.1003477    7.7326405    1505958.6    1505966.4   -858.96026 
 1767000   0.10072513    7.7341049      1505449    1505456.8   -859.94449 
 1767500    0.1001993    7.7346659    1507030.4    1507038.2   -859.56237 
 1768000   0.10056339    7.7379127      1506324    1506331.9   -863.29661 
 1768500   0.10050192    7.7382166    1508802.6    1508810.4   -858.77179 
 1769000   0.10042526    7.7381122    1510701.5    1510709.3   -860.91735 
 1769500   0.10024906    7.7382769    1511710.7    1511718.5   -859.10659 
 1770000   0.10039216    7.7409551    1511941.3    1511949.2   -860.03209 
 1770500   0.10033428    7.7421174    1513546.6    1513554.4   -861.86159 
 1771000   0.10020715    7.7430811    1512770.3    1512778.1    -861.6409 
 1771500   0.10043294    7.7430882    1514782.6    1514790.4   -858.99204 
 1772000   0.10022751     7.742822    1512628.2    1512636.1   -862.93964 
 1772500   0.10015788     7.745617    1512628.1    1512635.9   -861.20002 
 1773000   0.10033802    7.7453745    1509113.8    1509121.6   -861.48153 
 1773500   0.10034065    7.7457205    1511330.7    1511338.6   -861.72104 
 1774000  0.099914901    7.7462258    1509011.5    1509019.3   -859.79352 
 1774500   0.10019568    7.7478008    1508589.7    1508597.5   -860.49053 
 1775000   0.10078886    7.7487816    1508589.6    1508597.4   -859.06512 
 1775500  0.099943395    7.7492589    1506791.7    1506799.6   -860.06136 
 1776000   0.10051136    7.7500771    1506265.5    1506273.3   -858.95825 
 1776500   0.10025837    7.7530446    1504324.4    1504332.2   -860.10591 
 1777000   0.10004154    7.7532453      1504070    1504077.8   -861.08766 
 1777500    0.1008734    7.7540084    1502300.7    1502308.5   -860.85224 
 1778000   0.10002195    7.7542372    1502300.7    1502308.5    -863.2232 
 1778500   0.10035504     7.756964    1501436.1    1501443.9   -861.20065 
 1779000   0.10011101    7.7574843    1501550.8    1501558.7   -861.30129 
 1779500   0.10039308    7.7570289      1502711    1502718.8   -862.60726 
 1780000   0.10037395     7.757925    1502311.9    1502319.7   -863.55399 
 1780500    0.1007037    7.7591367    1500398.8    1500406.6   -861.13568 
 1781000  0.099927941    7.7594858      1501362    1501369.8   -859.22469 
 1781500   0.10032445    7.7589397      1500025    1500032.8   -861.25603 
 1782000   0.10033096    7.7597199      1500025    1500032.8   -860.86869 
 1782500   0.10008292    7.7596635    1499384.4    1499392.2   -861.78798 
 1783000   0.10041568    7.7599559    1497549.5    1497557.3   -862.74823 
 1783500   0.10032802    7.7618853    1495018.7    1495026.5   -862.21643 
 1784000   0.10040066    7.7623013    1495018.6    1495026.4   -862.02276 
 1784500   0.10048461    7.7623129    1492620.9    1492628.8   -860.24723 
 1785000    0.1002832    7.7636713    1489520.1    1489527.9   -861.89549 
 1785500   0.10034074    7.7634162    1486474.9    1486482.7   -859.85115 
 1786000   0.10058876    7.7632647      1481858    1481865.8    -861.5532 
 1786500   0.10019034    7.7635047    1478190.9    1478198.7   -860.16587 
 1787000   0.10071507    7.7640287      1478191    1478198.8   -861.68368 
 1787500   0.09965948     7.763264    1475069.5    1475077.4   -858.81782 
 1788000   0.10054805    7.7638912    1473856.5    1473864.3   -858.97166 
 1788500   0.10044528     7.763289    1469879.6    1469887.5   -860.07758 
 1789000   0.10070613    7.7642799    1469879.6    1469887.4   -860.88317 
 1789500   0.10084804    7.7646606    1465235.7    1465243.5   -860.94575 
 1790000   0.10057255    7.7636713    1459292.6    1459300.5   -862.93477 
 1790500   0.10087009    7.7633863    1456969.1    1456976.9   -859.51386 
 1791000   0.10001779    7.7619943    1452894.1    1452901.9   -860.21618 
 1791500   0.09971861    7.7630891    1448359.5    1448367.4   -860.10827 
 1792000   0.10070236    7.7622221    1442922.8    1442930.7   -857.98127 
 1792500   0.10068735    7.7622014    1439208.7    1439216.5   -861.99286 
 1793000   0.10034485    7.7614534    1438769.9    1438777.7   -862.78998 
 1793500   0.10066049    7.7607233      1435800    1435807.8   -859.22361 
 1794000   0.10075079    7.7620487    1433652.1      1433660   -860.87824 
 1794500   0.10067204    7.7605418    1433652.2    1433660.1   -860.85027 
 1795000   0.10035504    7.7594278    1432480.9    1432488.7   -859.48628 
 1795500   0.10071838    7.7601722    1429867.5    1429875.3   -860.06782 
 1796000   0.10008861    7.7606227      1428013    1428020.8   -859.78662 
 1796500   0.10066466    7.7615151    1427786.5    1427794.3   -861.63053 
 1797000   0.10063592    7.7619521    1425195.3    1425203.2   -859.52479 
 1797500  0.099994163     7.761616    1425314.5    1425322.4   -860.71182 
 1798000   0.10047965    7.7616359      1422116    1422123.8   -859.59595 
 1798500   0.10037635    7.7622868    1421274.7    1421282.5   -860.29234 
 1799000   0.10027462    7.7622161    1419097.2      1419105   -859.11963 
 1799500   0.10013013    7.7627183    1419097.2    1419105.1   -859.18803 
 1800000   0.10056154    7.7633428    1421335.4    1421343.3   -860.50716 
 1800500   0.10056674    7.7655291    1421335.5    1421343.3   -859.77733 
 1801000  0.099934665    7.7657327      1420905    1420912.8   -861.80402 
 1801500   0.10049193    7.7661177      1420069    1420076.9   -859.94862 
 1802000   0.10029901      7.76547    1421510.3    1421518.2   -861.79157 
 1802500   0.10048305    7.7643835    1420295.6    1420303.4   -861.70802 
 1803000   0.10021498    7.7651207    1420902.3    1420910.2   -863.61404 
 1803500     0.100058    7.7668225    1422248.8    1422256.7   -860.50366 
 1804000    0.1008291    7.7667267    1422248.8    1422256.6   -860.30433 
 1804500   0.10018547    7.7676461    1422126.1    1422133.9   -861.04234 
 1805000   0.10072675    7.7672083    1424537.2      1424545   -860.15668 
 1805500   0.10076788    7.7679391    1426249.4    1426257.2   -862.33011 
 1806000   0.10061105    7.7684438    1425281.4    1425289.2    -859.9358 
 1806500   0.10023686    7.7672171    1425556.6    1425564.4   -858.47875 
 1807000   0.10025541    7.7670198    1425345.6    1425353.5   -862.67743 
 1807500   0.10037806    7.7673339    1424444.5    1424452.3   -858.54921 
 1808000   0.10056989    7.7687385    1424094.4    1424102.2   -861.30394 
 1808500   0.10080153    7.7687888    1424094.5    1424102.3   -860.72086 
 1809000   0.10070373    7.7683744    1422887.7    1422895.5   -858.72909 
 1809500   0.10002764    7.7680816      1422083    1422090.8   -859.51011 
 1810000   0.09992551    7.7675271    1422679.3    1422687.1   -858.81263 
 1810500   0.10044652    7.7665678    1424543.9    1424551.7   -858.38619 
 1811000   0.10040668     7.767569      1424544    1424551.8   -864.30374 
 1811500   0.10024548    7.7678333      1426266    1426273.9   -860.32434 
 1812000   0.10048856    7.7679561    1428007.4    1428015.3   -862.62087 
 1812500   0.10048303    7.7671593    1427695.3    1427703.2   -857.97232 
 1813000   0.10031027    7.7650891    1429238.9    1429246.7   -861.73609 
 1813500   0.10042039    7.7651147    1429238.9    1429246.7   -859.44001 
 1814000  0.099795432      7.76624    1431189.3    1431197.2   -860.45188 
 1814500    0.1005631    7.7651243    1433413.4    1433421.3   -860.01486 
 1815000   0.10001879    7.7665099      1435285    1435292.9   -859.67483 
 1815500   0.10054371    7.7665094    1437287.7    1437295.6   -860.66653 
 1816000   0.10039217    7.7664764    1441101.4    1441109.2   -860.98755 
 1816500   0.10058048    7.7666696    1443407.1      1443415   -862.51847 
 1817000    0.1001697    7.7672055    1444954.1    1444961.9   -860.52528 
 1817500    0.1002343    7.7669844    1444954.2      1444962   -860.77741 
 1818000    0.1001418    7.7663344    1445844.8    1445852.7   -863.35976 
 1818500   0.10047458    7.7656923    1445973.3    1445981.1   -858.73669 
 1819000   0.10053037    7.7658105    1449057.2      1449065   -860.56828 
 1819500   0.10017449    7.7674799    1450980.3    1450988.1   -859.43668 
 1820000   0.10063049     7.766558    1450980.3    1450988.2   -860.89066 
 1820500   0.10027571    7.7659593    1454130.7    1454138.6   -861.26565 
 1821000  0.099952573    7.7659486    1455803.6    1455811.5   -862.01441 
 1821500   0.10031937    7.7653613    1456830.3    1456838.1   -859.92055 
 1822000   0.10024393    7.7651864    1457054.7    1457062.6    -861.6386 
 1822500   0.10061617    7.7645137    1456860.9    1456868.8   -860.67158 
 1823000   0.10077872    7.7653984    1458408.6    1458416.4   -858.98102 
 1823500   0.10033227    7.7651831    1459963.6    1459971.4   -861.41409 
 1824000   0.10029942    7.7646782    1462833.7    1462841.6   -861.01295 
 1824500   0.10063655    7.7654786      1463972    1463979.9    -861.8194 
 1825000   0.10033676    7.7660765    1466145.9    1466153.7     -861.795 
 1825500   0.10017374    7.7655552      1466146    1466153.9   -860.75693 
 1826000   0.10024916    7.7669841      1465886    1465893.8   -859.51355 
 1826500   0.10008293    7.7673869    1467688.2    1467696.1   -863.13102 
 1827000    0.1000854    7.7661858    1466918.8    1466926.7    -861.4793 
 1827500   0.10047524    7.7649226    1466480.1      1466488   -860.71925 
 1828000   0.10004377    7.7673347    1468323.2    1468331.1   -860.77173 
 1828500   0.10043922    7.7664338    1468471.7    1468479.5   -862.91713 
 1829000   0.10045623    7.7666812    1468471.6    1468479.4   -859.43701 
 1829500    0.1006772    7.7665024    1467794.7    1467802.5    -861.7842 
 1830000   0.10039331    7.7655236      1467786    1467793.8   -860.52159 
 1830500   0.10034576    7.7658117    1465391.9    1465399.8   -860.01604 
 1831000   0.10019297    7.7657866    1465391.9    1465399.8   -859.85522 
 1831500   0.10033089    7.7660678    1463328.6    1463336.5   -861.11193 
 1832000   0.10045642    7.7635132    1460141.1    1460148.9   -860.53627 
 1832500   0.10022796    7.7639918    1458918.6    1458926.4   -860.70672 
 1833000   0.10056356     7.765327    1459679.4    1459687.2   -859.29025 
 1833500   0.10037596    7.7662811    1459541.9    1459549.7    -861.0178 
 1834000   0.10055781    7.7650317    1459365.2      1459373    -861.0603 
 1834500   0.10034618    7.7648724    1458525.7    1458533.5   -859.41693 
 1835000  0.099943288    7.7649271    1458525.8    1458533.6   -859.00182 
 1835500   0.10075317    7.7652184    1458496.4    1458504.3   -861.53942 
 1836000   0.10033097    7.7645289    1459133.4    1459141.2   -863.51793 
 1836500   0.10045731    7.7634684    1461513.6    1461521.4   -860.92567 
 1837000   0.10032524    7.7628966    1462446.9    1462454.8   -861.05119 
 1837500   0.10018907     7.764183    1462446.9    1462454.7   -861.57682 
 1838000   0.10071116    7.7649225    1464379.6    1464387.5   -858.77734 
 1838500   0.10046496    7.7650392      1467190    1467197.9     -862.006 
 1839000     0.100688    7.7648677    1468428.8    1468436.7   -859.35088 
 1839500    0.1000402    7.7636759    1469755.3    1469763.1    -862.5232 
 1840000   0.10035235    7.7643392    1469755.4    1469763.2    -859.7637 
 1840500   0.10053818    7.7648265      1471062    1471069.8   -862.95252 
 1841000   0.10043741    7.7628973    1472660.5    1472668.4   -860.19846 
 1841500   0.10030937    7.7630726    1474965.5    1474973.3   -861.14929 
 1842000   0.10053421    7.7630693    1475687.2      1475695   -861.63921 
 1842500   0.10014323    7.7622098    1475317.8    1475325.7   -860.88403 
 1843000   0.10069001    7.7618518    1476508.8    1476516.6   -861.35152 
 1843500   0.10021168    7.7620069    1479292.8    1479300.7   -861.18944 
 1844000   0.10042073    7.7616811    1478367.8    1478375.6   -860.97596 
 1844500   0.10044185    7.7597703    1477921.7    1477929.5   -860.94237 
 1845000   0.10009919    7.7604757    1480988.9    1480996.7   -859.67619 
 1845500   0.10063592    7.7593728    1482773.2      1482781   -861.54798 
 1846000   0.10054794    7.7590745    1482773.3    1482781.1   -860.98899 
 1846500   0.10020268    7.7579037    1484414.1    1484421.9   -860.76982 
 1847000   0.10064685     7.758717    1483527.7    1483535.5   -860.82159 
 1847500   0.10043065    7.7581845    1481198.1    1481205.9   -860.71084 
 1848000   0.10050728    7.7562333    1478905.1    1478912.9   -858.50308 
 1848500   0.10055407    7.7551554      1475649    1475656.8   -861.00359 
 1849000    0.1001049    7.7554203    1475863.1    1475870.9   -860.23109 
 1849500   0.10061714    7.7548599      1473987    1473994.8   -861.02324 
 1850000   0.10024996    7.7547941    1473786.5    1473794.4    -858.5397 
 1850500    0.1001162    7.7531787      1473667    1473674.9   -862.05973 
 1851000   0.10037041    7.7536859    1474017.6    1474025.4   -859.03264 
 1851500   0.10044153    7.7524826    1473638.6    1473646.4   -861.66661 
 1852000    0.1005418    7.7508888    1474446.5    1474454.4   -859.69655 
 1852500   0.10029713    7.7502453    1473753.2      1473761   -859.81564 
 1853000   0.10038732    7.7497107    1473753.3    1473761.1    -859.7845 
 1853500    0.1002646    7.7487023      1470598    1470605.9   -861.66949 
 1854000     0.100626    7.7475195    1468370.7    1468378.5   -860.89559 
 1854500    0.1004104    7.7454511    1466587.2      1466595   -859.85611 
 1855000   0.10058854    7.7438039    1466587.3    1466595.1   -862.28355 
 1855500   0.10000741    7.7439577      1464170    1464177.8   -858.99963 
 1856000   0.10070068    7.7428799    1463808.7    1463816.6   -859.94053 
 1856500   0.10057951    7.7419075    1462712.3    1462720.2   -861.13584 
 1857000   0.10072771    7.7420864      1463060    1463067.8   -861.25595 
 1857500   0.10074262    7.7408742    1461903.2    1461911.1   -861.73753 
 1858000   0.10035949     7.739021    1460702.8    1460710.6   -859.78709 
 1858500   0.10060614    7.7394671    1459429.4    1459437.3   -860.55852 
 1859000   0.10052885    7.7401992      1458666    1458673.8    -860.4963 
 1859500   0.10040152    7.7385601    1459714.1    1459721.9   -861.71646 
 1860000   0.10028256    7.7381054    1460258.4    1460266.2   -860.18446 
 1860500   0.10044294    7.7371781    1461816.5    1461824.4   -860.22286 
 1861000   0.10013469    7.7353732    1461816.5    1461824.3   -861.94684 
 1861500   0.10043309    7.7351573      1461633    1461640.8    -860.4576 
 1862000   0.10046394     7.734822    1463490.1    1463497.9   -862.72637 
 1862500   0.10033945    7.7331242      1463941    1463948.8   -863.60438 
 1863000   0.10057759       7.7329    1464057.2      1464065   -861.60362 
 1863500    0.1001115    7.7316083      1463641    1463648.8   -862.02776 
 1864000   0.10035379    7.7318971      1463641    1463648.8    -859.6435 
 1864500   0.10080805    7.7317242    1463414.8    1463422.6   -862.11681 
 1865000   0.10001416    7.7315839    1463187.2      1463195   -862.01568 
 1865500   0.10034795    7.7312381    1461672.8    1461680.6   -861.95022 
 1866000   0.10012192    7.7323371    1460120.3    1460128.1   -859.09003 
 1866500   0.10021917    7.7316425    1460120.2    1460128.1   -860.62218 
 1867000   0.10023442    7.7312683    1460002.1    1460009.9   -858.26408 
 1867500   0.10036546    7.7309606    1460002.2      1460010   -859.83826 
 1868000   0.10046043    7.7318206    1458644.3    1458652.1   -859.61627 
 1868500   0.10010172    7.7325136    1457368.1    1457375.9   -858.17071 
 1869000   0.10019098    7.7338336    1456169.9    1456177.7   -860.31576 
 1869500   0.10093632    7.7329117    1452695.6    1452703.4   -862.44898 
 1870000   0.10019574     7.734684    1449941.3    1449949.1   -861.13565 
 1870500   0.10010645    7.7356964    1449941.2      1449949    -861.7224 
 1871000   0.10045754    7.7340796    1450966.1    1450973.9   -860.31547 
 1871500   0.10047376    7.7352593    1449486.9    1449494.7   -863.62376 
 1872000     0.100467    7.7355083    1445949.1    1445956.9   -860.36714 
 1872500   0.10000351    7.7357702    1445682.8    1445690.6   -860.43252 
 1873000   0.10049578    7.7362841    1444593.8    1444601.6   -860.55409 
 1873500   0.10025446     7.737097    1444593.7    1444601.5   -861.82151 
 1874000   0.10041604    7.7368043    1442212.9    1442220.7   -860.85881 
 1874500   0.10028745     7.736462    1442783.6    1442791.4   -862.98516 
 1875000   0.10045047     7.736949    1442783.6    1442791.4    -860.2104 
 1875500   0.10039495    7.7379073    1442708.9    1442716.7   -860.16422 
 1876000  0.099998281    7.7393685    1441933.4    1441941.2   -857.84742 
 1876500    0.1001124    7.7391505    1441933.6    1441941.4   -858.74715 
 1877000   0.10060033    7.7409216    1441911.6    1441919.4    -860.4435 
 1877500   0.10053228     7.741727    1443042.4    1443050.2   -860.37824 
 1878000    0.1003657    7.7424449    1441200.1      1441208   -860.96938 
 1878500   0.10048558    7.7410744    1441200.2      1441208   -861.91444 
 1879000   0.10026298    7.7404521    1443078.3    1443086.1    -861.9366 
 1879500   0.10069504    7.7404794    1442538.9    1442546.7   -860.77679 
 1880000  0.099814488    7.7408835      1442792    1442799.8   -860.45045 
 1880500   0.10051175    7.7395306    1442664.4    1442672.3   -862.82036 
 1881000   0.10033545    7.7385659    1442664.4    1442672.2    -859.4255 
 1881500   0.10024747    7.7390158    1441899.9    1441907.7   -861.59544 
 1882000   0.10046852    7.7401696    1444786.4    1444794.2   -858.87357 
 1882500   0.10043706    7.7393423    1444751.1    1444758.9   -859.44347 
 1883000   0.10101981    7.7378709    1445340.5    1445348.3   -861.53439 
 1883500    0.1001675    7.7383982    1445340.4    1445348.2   -860.43726 
 1884000   0.10030013    7.7369053    1447500.8    1447508.7   -860.64721 
 1884500    0.1008741    7.7372751    1449328.1    1449335.9   -860.27158 
 1885000   0.10029317    7.7375655    1448647.3    1448655.1   -863.12577 
 1885500   0.10022914    7.7376768    1448046.2      1448054   -862.55469 
 1886000   0.10046904    7.7361772    1447836.5    1447844.3   -860.20077 
 1886500   0.10025669     7.735892    1447913.7    1447921.5   -860.76591 
 1887000   0.10070708    7.7356631    1450393.1    1450400.9   -860.08513 
 1887500   0.10075679    7.7357344    1451798.1    1451805.9   -861.33867 
 1888000   0.10052908    7.7356428    1455409.6    1455417.4   -862.69237 
 1888500   0.10040015    7.7337388    1456700.9    1456708.7   -861.05635 
 1889000   0.10049391    7.7344696    1458760.6    1458768.4   -862.04974 
 1889500   0.10055951    7.7342247    1462632.8    1462640.6   -859.91203 
 1890000   0.10046087    7.7348112    1463965.2    1463973.1   -857.62903 
 1890500   0.10064185    7.7349999    1463965.3    1463973.1   -859.11784 
 1891000    0.1005086    7.7330818    1468193.3    1468201.1   -858.61571 
 1891500   0.10051129    7.7345818    1469455.3    1469463.1   -861.99213 
 1892000   0.10005682    7.7340471    1473138.4    1473146.2   -863.36902 
 1892500   0.10071296    7.7340234    1473516.8    1473524.6   -861.89922 
 1893000   0.10010405    7.7333342    1476269.5    1476277.3   -858.59648 
 1893500   0.10047217     7.734299    1476948.7    1476956.5   -861.92253 
 1894000   0.10034406    7.7333516    1479102.3    1479110.1   -859.14636 
 1894500   0.10003654    7.7347211    1479102.3    1479110.1   -862.01685 
 1895000   0.10044237    7.7358736    1481409.1    1481416.9   -859.69822 
 1895500   0.10071388      7.73693    1486129.5    1486137.3   -860.69016 
 1896000   0.10058596    7.7367244    1484509.6    1484517.4   -858.54597 
 1896500   0.10007185    7.7372136    1485297.5    1485305.3   -860.08685 
 1897000   0.10012569    7.7385241    1485032.2      1485040   -861.91709 
 1897500   0.10041139    7.7399744    1486208.3    1486216.1    -860.4956 
 1898000   0.10038456    7.7399734    1485625.3    1485633.1   -858.77564 
 1898500   0.10038469    7.7400419    1485625.2      1485633   -860.53168 
 1899000   0.10016736    7.7411968    1488442.9    1488450.7   -863.42412 
 1899500  0.099921967    7.7420595    1488348.4    1488356.2   -860.12622 
 1900000   0.10013813    7.7416865    1486026.2    1486034.1   -860.24072 
 1900500   0.10014686    7.7430927    1486026.1    1486033.9   -859.91564 
 1901000   0.10049988    7.7437253    1485445.7    1485453.5   -860.15274 
 1901500   0.10022463    7.7436688      1486383    1486390.8   -860.44419 
 1902000   0.10023785    7.7450114    1486630.9    1486638.7   -860.01218 
 1902500   0.10073174     7.745332    1483888.6    1483896.5   -863.69613 
 1903000   0.10044159    7.7463002    1482763.9    1482771.7   -861.12382 
 1903500   0.10012997    7.7476581    1483715.8    1483723.6   -860.24614 
 1904000   0.10027485    7.7487553    1483715.8    1483723.6   -860.77684 
 1904500  0.099914133    7.7499059    1484766.6    1484774.5   -858.85787 
 1905000   0.10043839     7.750257      1485877    1485884.8   -858.13941 
 1905500   0.10029689    7.7490861      1486093    1486100.9   -860.97486 
 1906000   0.10042231    7.7490541    1484286.5    1484294.3   -860.20592 
 1906500   0.10033255    7.7513238    1481128.4    1481136.2   -860.26489 
 1907000   0.10015622    7.7503411    1481128.4    1481136.2   -859.64823 
 1907500   0.10025103    7.7488814    1477953.5    1477961.3   -858.90209 
 1908000   0.10027188    7.7508032    1474903.8    1474911.6   -859.62851 
 1908500   0.10022742    7.7513165      1474202    1474209.8   -861.07994 
 1909000   0.10038763    7.7512726    1472389.1    1472396.9   -861.76121 
 1909500   0.10013047    7.7520029    1468367.1    1468374.9   -860.69497 
 1910000   0.10042494    7.7526408    1465406.1    1465413.9    -861.7718 
 1910500    0.1006467    7.7534516    1464642.8    1464650.6   -859.98811 
 1911000   0.10007797    7.7524326    1462369.6    1462377.5   -861.46832 
 1911500    0.1005754    7.7534811    1460711.1    1460718.9   -861.56171 
 1912000   0.10046367    7.7542164    1460711.2      1460719   -861.61842 
 1912500   0.10076921    7.7553345    1456289.4    1456297.2    -861.3956 
 1913000   0.10051365    7.7551044    1454226.8    1454234.6   -858.08054 
 1913500  0.099944719    7.7561174    1451794.7    1451802.5   -861.16402 
 1914000   0.10074082    7.7551062      1450232    1450239.9   -859.75131 
 1914500   0.10057959     7.755931    1450284.6    1450292.4   -861.36215 
 1915000   0.10029175    7.7564051    1448252.6    1448260.4   -862.39989 
 1915500    0.1007078    7.7554422    1447022.3    1447030.1   -860.34358 
 1916000   0.10047671    7.7563506    1445460.2    1445468.1   -861.47247 
 1916500   0.10076748    7.7563337    1445460.2      1445468   -861.43866 
 1917000   0.10092323    7.7564183    1444415.9    1444423.8    -861.6285 
 1917500     0.100434    7.7571185    1444108.9    1444116.7   -860.12204 
 1918000   0.10038341    7.7571177    1441649.5    1441657.4   -859.47895 
 1918500    0.1005787    7.7577058      1439736    1439743.8   -859.61625 
 1919000   0.10045087    7.7584945    1439830.3    1439838.1   -859.84649 
 1919500   0.10052365    7.7571133    1439830.2      1439838   -859.94617 
 1920000   0.10043426    7.7595414    1438850.6    1438858.4      -859.59 
 1920500   0.10034726    7.7589238    1439057.5    1439065.3   -862.38735 
 1921000   0.10046508    7.7596164    1440882.5    1440890.3   -859.13848 
 1921500   0.10024902    7.7587687    1438316.1      1438324   -861.93159 
 1922000   0.10023722    7.7596962    1440479.8    1440487.6   -858.84162 
 1922500   0.10053053    7.7608472    1440479.8    1440487.6   -860.38017 
 1923000   0.10064226    7.7606999    1441119.2    1441127.1   -861.16959 
 1923500   0.10062188    7.7612182    1443362.3    1443370.1   -860.77258 
 1924000   0.10057807    7.7609776    1444400.2      1444408   -859.17911 
 1924500   0.10023046    7.7611658    1445569.3    1445577.1   -862.68088 
 1925000   0.10059791    7.7608151    1445569.2    1445577.1   -861.90762 
 1925500   0.10034387    7.7622235    1447845.1    1447852.9   -861.25191 
 1926000   0.10046367    7.7615961      1448685    1448692.8     -860.257 
 1926500   0.10001485    7.7617587    1450181.5    1450189.3   -859.61393 
 1927000   0.10042077    7.7618332    1451682.6    1451690.4   -862.56449 
 1927500   0.10043341    7.7628345    1451491.5    1451499.3   -862.12983 
 1928000    0.1004374    7.7630092    1452976.4    1452984.2   -858.66383 
 1928500   0.10090582    7.7638124    1454295.3    1454303.1   -861.88516 
 1929000   0.10015876    7.7643058    1453486.6    1453494.4   -859.64528 
 1929500    0.1003734    7.7635323      1454821    1454828.8   -859.95633 
 1930000    0.1003058    7.7630141    1454820.9    1454828.8   -861.11454 
 1930500   0.10076484    7.7640362    1455751.1      1455759   -861.60825 
 1931000   0.10088838    7.7643534    1456887.8    1456895.7    -861.5647 
 1931500   0.10062469    7.7637416      1460609    1460616.8   -860.86759 
 1932000   0.10031342     7.764817    1462055.7    1462063.6   -861.76731 
 1932500   0.10018409    7.7649472    1465115.7    1465123.5   -861.37128 
 1933000   0.10043843    7.7643922    1467595.3    1467603.1   -859.76081 
 1933500   0.10063728    7.7656959    1469202.6    1469210.4   -860.11392 
 1934000   0.10056088     7.765738    1469202.6    1469210.4   -861.19906 
 1934500   0.10027825    7.7654296    1468355.8    1468363.6   -860.70838 
 1935000    0.1002111    7.7654319    1470130.2      1470138   -861.13649 
 1935500   0.10043863    7.7667933    1470960.9    1470968.8   -860.12951 
 1936000   0.10017864    7.7675765    1470171.1    1470178.9   -860.96861 
 1936500   0.10022742    7.7670297    1470171.1    1470178.9   -857.46502 
 1937000   0.10031274    7.7677896    1469783.6    1469791.5   -859.68713 
 1937500    0.1003527    7.7664905    1467752.2    1467760.1   -859.94473 
 1938000   0.10051958    7.7674903    1466455.5    1466463.3   -858.13777 
 1938500   0.10047406    7.7659785    1465843.4    1465851.3   -859.88034 
 1939000  0.099954569     7.766603    1465843.5    1465851.3   -861.87602 
 1939500   0.10035301    7.7672035    1462070.6    1462078.4   -861.14047 
 1940000   0.10000456    7.7666799    1459535.4    1459543.2   -861.89607 
 1940500   0.10043818    7.7678477    1460258.9    1460266.7   -858.51366 
 1941000   0.10030492    7.7695466    1460258.9    1460266.7   -861.15016 
 1941500   0.10019615      7.76998    1460492.6    1460500.4    -861.1244 
 1942000   0.10045388    7.7686289    1460344.3    1460352.1   -860.21204 
 1942500   0.10073107    7.7697785    1461133.4    1461141.2   -861.81794 
 1943000   0.10039005    7.7686667    1461133.4    1461141.2   -861.47356 
 1943500   0.10040457    7.7686558    1460447.9    1460455.7   -861.25449 
 1944000    0.1005166    7.7690035    1459547.6    1459555.4   -860.38812 
 1944500   0.10050464    7.7693295    1460472.5    1460480.4   -860.54224 
 1945000    0.1002221    7.7694114    1458689.7    1458697.5   -860.86971 
 1945500   0.10047574    7.7684223    1458529.7    1458537.6   -860.07913 
 1946000   0.10039319    7.7686817    1458529.6    1458537.5   -860.97859 
 1946500   0.10020952    7.7687158    1457027.8    1457035.6   -860.38491 
 1947000   0.10017283    7.7699109    1456290.4    1456298.3   -859.56251 
 1947500   0.10063789    7.7704808    1455925.5    1455933.3   -861.01457 
 1948000   0.10005716    7.7704001    1455364.1    1455371.9    -862.4605 
 1948500   0.10075274     7.771263      1455364    1455371.9   -860.92067 
 1949000   0.10033352    7.7726336    1454827.3    1454835.2   -861.72629 
 1949500   0.10042687     7.772643    1451365.8    1451373.7   -860.37918 
 1950000   0.10042941    7.7735659    1451771.3    1451779.1   -860.70227 
 1950500   0.10073245    7.7729936    1451771.2      1451779   -860.96146 
 1951000    0.1002787    7.7721709    1451163.1    1451170.9   -860.55104 
 1951500  0.099850717    7.7737147    1450788.2      1450796   -860.54856 
 1952000   0.10023284    7.7740938    1449231.5    1449239.3   -862.60886 
 1952500   0.10014665    7.7725613    1448193.3    1448201.2   -860.57481 
 1953000   0.10002611    7.7725179    1448193.3    1448201.1   -858.67469 
 1953500   0.10064359     7.772004      1446363    1446370.8    -861.1208 
 1954000   0.10031502    7.7727324    1444379.9    1444387.8   -862.67337 
 1954500   0.10033508    7.7736221    1441597.5    1441605.4    -861.3032 
 1955000   0.10075358    7.7735517    1441597.6    1441605.4   -861.05635 
 1955500   0.10035348    7.7747044    1439160.6    1439168.5   -861.72137 
 1956000   0.10012602    7.7755978    1436459.9    1436467.7    -860.5619 
 1956500    0.1004253     7.774439    1433638.3    1433646.1   -860.52864 
 1957000   0.10006709    7.7733022    1433371.5    1433379.4   -862.33986 
 1957500   0.10061162    7.7734092    1433371.6    1433379.5   -861.86957 
 1958000   0.10040497    7.7736007    1430804.3    1430812.2   -862.66122 
 1958500   0.10023077    7.7732989    1428483.6    1428491.4   -860.23655 
 1959000   0.10033233    7.7720668    1428987.9    1428995.7   -860.77369 
 1959500   0.10059698    7.7732896    1428764.4    1428772.3   -862.35658 
 1960000     0.100699    7.7739701    1428764.4    1428772.3   -860.95957 
 1960500   0.10051391    7.7735235      1429989    1429996.8   -860.72532 
 1961000   0.10050301    7.7735529    1429834.1      1429842   -860.39213 
 1961500    0.1006983    7.7718013    1431052.4    1431060.2   -861.27853 
 1962000   0.10083934    7.7722076    1428192.8    1428200.6   -862.02978 
 1962500   0.10084878    7.7712974    1428192.8    1428200.6   -858.49105 
 1963000    0.1006592    7.7718775    1427807.9    1427815.7   -858.14683 
 1963500   0.10021858    7.7699901    1426497.8    1426505.7   -859.74441 
 1964000   0.10050304    7.7698435    1428034.7    1428042.5   -859.70372 
 1964500   0.10031039    7.7695192    1428177.1      1428185   -859.28166 
 1965000   0.10037837    7.7695196      1428177    1428184.9   -860.73433 
 1965500    0.1008569     7.770042    1429138.3    1429146.1   -864.35006 
 1966000   0.10025463      7.76889      1431129    1431136.8   -859.41056 
 1966500   0.10066315    7.7706562    1432394.8    1432402.7   -863.07847 
 1967000   0.10005443    7.7705762    1433522.6    1433530.5   -862.84206 
 1967500   0.10013745    7.7710637    1433522.6    1433530.4   -861.63257 
 1968000   0.10015168    7.7706281    1434247.1      1434255    -860.8425 
 1968500   0.10047011    7.7709661      1433924    1433931.8   -860.70098 
 1969000   0.10065444    7.7710155    1434820.5    1434828.3   -858.27885 
 1969500    0.1008352     7.771678    1435513.6    1435521.4   -862.15882 
 1970000   0.10021677    7.7711586    1435513.6    1435521.4    -860.6676 
 1970500   0.10044069    7.7706094    1434568.3    1434576.1   -860.06414 
 1971000   0.10093795    7.7720359      1433210    1433217.9   -859.62768 
 1971500   0.10035601    7.7716552    1432966.9    1432974.8   -861.36349 
 1972000   0.10058423    7.7717601    1433394.2    1433402.1    -861.7211 
 1972500   0.10067043      7.77197    1434494.4    1434502.3   -858.62445 
 1973000   0.10051786    7.7724935      1434422    1434429.9   -860.56021 
 1973500   0.10058232    7.7729682    1433587.2      1433595   -860.78518 
 1974000  0.099890636    7.7730802    1432359.7    1432367.5   -861.36638 
 1974500   0.10057997     7.772472    1433469.9    1433477.7   -858.79306 
 1975000   0.10069282    7.7727797    1432181.2      1432189   -862.81573 
 1975500    0.1004742    7.7717049    1433640.7    1433648.5   -860.15756 
 1976000   0.10044172    7.7718651    1433640.6    1433648.5   -862.90852 
 1976500    0.1000495    7.7723147    1433551.5    1433559.4   -860.19996 
 1977000   0.10079103      7.77128    1432038.5    1432046.3   -859.91311 
 1977500   0.10069931    7.7726663    1430740.5    1430748.4   -860.69702 
 1978000   0.10023866    7.7729124    1429728.2    1429736.1   -859.12016 
 1978500    0.1006515    7.7726096    1430556.8    1430564.6   -860.32446 
 1979000   0.10037778    7.7734716    1429891.1    1429898.9   -859.13089 
 1979500    0.1001932    7.7718679    1428571.1    1428578.9   -859.76225 
 1980000   0.10024643    7.7731108    1428992.3    1429000.1    -858.6672 
 1980500   0.10030326    7.7732921      1429180    1429187.9   -862.30711 
 1981000   0.10025113    7.7732006    1429179.9    1429187.8    -862.0225 
 1981500   0.10045107    7.7739181    1428633.4    1428641.2   -859.42158 
 1982000   0.10042477    7.7739183    1428969.4    1428977.3   -861.69931 
 1982500   0.10034634    7.7729709    1430415.3    1430423.2   -859.91108 
 1983000   0.10026539    7.7724539    1431332.6    1431340.5   -859.51455 
 1983500   0.10011797    7.7723484    1433176.4    1433184.2   -861.23245 
 1984000   0.10057817    7.7716832    1435736.8    1435744.6   -863.69742 
 1984500   0.10012612    7.7700342    1435736.8    1435744.6   -861.90046 
 1985000   0.10046134    7.7713821    1438544.4    1438552.3   -860.14437 
 1985500    0.1004312    7.7706227    1440473.1      1440481   -860.64704 
 1986000   0.10044457     7.770095    1441525.9    1441533.8   -860.16478 
 1986500   0.10018617    7.7696972      1442493    1442500.9   -863.49349 
 1987000   0.10028911    7.7699466    1445678.6    1445686.4   -859.41446 
 1987500    0.1001145    7.7687172    1445678.7    1445686.5   -859.43163 
 1988000    0.1005596    7.7688179    1445327.9    1445335.8   -860.42932 
 1988500   0.10022384      7.76902    1446326.5    1446334.4   -861.00207 
 1989000  0.099709924      7.76754    1445948.1    1445955.9   -863.88259 
 1989500   0.10041153    7.7673632    1445738.2      1445746   -859.99177 
 1990000   0.10021851    7.7669528    1445738.3    1445746.2   -858.90224 
 1990500     0.100559    7.7657139    1447741.6    1447749.4   -861.04146 
 1991000   0.10013786    7.7645346    1447741.7    1447749.5   -861.95718 
 1991500   0.10073134    7.7638074    1449757.2      1449765   -863.43598 
 1992000    0.1007168    7.7635124    1452331.9    1452339.7   -861.26491 
 1992500   0.10051235    7.7613365    1454341.1    1454348.9   -863.41615 
 1993000   0.10056444    7.7607482    1457636.6    1457644.4   -861.40748 
 1993500   0.10001391    7.7598656    1457636.7    1457644.5   -860.28728 
 1994000   0.10034341    7.7604497    1459120.5    1459128.3    -860.6282 
 1994500   0.10040548    7.7608365    1461142.9    1461150.7   -858.62802 
 1995000   0.10053692    7.7602868    1462570.6    1462578.4   -859.96779 
 1995500   0.10013561    7.7587534    1462725.6    1462733.4   -858.77941 
 1996000    0.1001775     7.758324    1462725.5    1462733.4   -859.56218 
 1996500   0.10003866    7.7568907    1464106.1    1464113.9   -859.15316 
 1997000   0.10060539    7.7561572    1464199.2      1464207   -860.79695 
 1997500   0.10029598     7.755495    1464978.4    1464986.2   -859.95517 
 1998000   0.10032971    7.7563399    1467047.8    1467055.6   -861.80989 
 1998500   0.10037632     7.753947    1467047.8    1467055.6     -858.751 
 1999000   0.10047019    7.7538968      1468165    1468172.8   -862.07747 
 1999500    0.1002614    7.7513051    1468517.8    1468525.6   -860.00957 
 2000000   0.10020994    7.7524681    1469906.7    1469914.5   -860.60594 
 2000010   0.10046836    7.7523488    1469906.8    1469914.6    -860.1915 
Loop time of 152934 on 640 procs for 2000010 steps with 250470 atoms

Pair  time (%) = 48931.2 (31.995)
Bond  time (%) = 44199 (28.9008)
Neigh time (%) = 349.874 (0.228775)
Comm  time (%) = 10635.7 (6.95447)
Outpt time (%) = 252.82 (0.165313)
Other time (%) = 48565.1 (31.7557)

Nlocal:    391.359 ave 1217 max 220 min
Histogram: 178 298 121 7 9 9 2 5 3 8
Nghost:    3626.3 ave 7500 max 1991 min
Histogram: 105 142 91 146 85 13 19 20 10 9
Neighs:    58683.3 ave 106354 max 22868 min
Histogram: 37 70 90 98 99 97 68 53 25 3

Total # of neighbors = 37557335
Ave neighs/atom = 149.947
Ave special neighs/atom = 9.6003
Neighbor list builds = 8558
Dangerous builds = 0
